LAMMPS (19 Nov 2024 - Development - patch_19Nov2024-119-gf00addcfaf)
# 1) System initialization

units       lj
boundary    p p p
atom_style  atomic

variable box_size           equal 10
variable volume             equal ${box_size}*${box_size}*${box_size}
variable volume             equal 10*${box_size}*${box_size}
variable volume             equal 10*10*${box_size}
variable volume             equal 10*10*10
variable numberDensity      equal 0.2
variable nParticles         equal ${numberDensity}*${volume}
variable nParticles         equal 0.2*${volume}
variable nParticles         equal 0.2*1000

# 1) NVE ensemble simulation

variable initialCutOff      equal 2^(1.0/6.0)
variable finalCutOff        equal 4.0
variable step               equal 0.2
variable cutOffInterval     equal ${finalCutOff}-${initialCutOff}
variable cutOffInterval     equal 4-${initialCutOff}
variable cutOffInterval     equal 4-1.12246204830937
variable nsteps             equal ceil(${cutOffInterval}/${step})+1
variable nsteps             equal ceil(2.87753795169063/${step})+1
variable nsteps             equal ceil(2.87753795169063/0.2)+1

label loop_start
variable index loop         1 ${nsteps}
variable index loop         1 16
variable r_cut              equal floor((${initialCutOff}+(${index}-1)*${step})*100)/100 #manual rounding to second decimal place
variable r_cut              equal floor((1.12246204830937+(${index}-1)*${step})*100)/100 
variable r_cut              equal floor((1.12246204830937+(1-1)*${step})*100)/100 
variable r_cut              equal floor((1.12246204830937+(1-1)*0.2)*100)/100 

print "Simulation for r_cut = ${r_cut}"
Simulation for r_cut = 1.12

variable region_name string     simulation_box_${r_cut}
variable region_name string     simulation_box_1.12
region ${region_name} block     0.0 ${box_size} 0.0 ${box_size} 0.0 ${box_size}
region simulation_box_1.12 block     0.0 ${box_size} 0.0 ${box_size} 0.0 ${box_size}
region simulation_box_1.12 block     0.0 10 0.0 ${box_size} 0.0 ${box_size}
region simulation_box_1.12 block     0.0 10 0.0 10 0.0 ${box_size}
region simulation_box_1.12 block     0.0 10 0.0 10 0.0 10
create_box 1 ${region_name}
create_box 1 simulation_box_1.12
Created orthogonal box = (0 0 0) to (10 10 10)
  1 by 1 by 1 MPI processor grid
create_atoms                    1 random ${nParticles} 234567 NULL overlap 1.3
create_atoms                    1 random 200 234567 NULL overlap 1.3
Created 200 atoms
  using lattice units in orthogonal box = (0 0 0) to (10 10 10)
  create_atoms CPU = 0.002 seconds

mass        1 1.0
velocity    all create 1.0 87242 mom yes dist gaussian
pair_style  lj/cut ${r_cut}
pair_style  lj/cut 1.12
pair_coeff  1 1 1.0 1.0
pair_modify tail yes

neighbor     0.3 bin
neigh_modify delay 0 every 10 check yes

thermo_style custom step pe ke etotal temp press density
thermo       10000

print "Equilibration"
Equilibration

fix         equilibration all nve
timestep    0.001
run         50000
Generated 0 of 0 mixed pair_coeff terms from geometric mixing rule
Neighbor list info ...
  update: every = 10 steps, delay = 0 steps, check = yes
  max neighbors/atom: 2000, page size: 100000
  master list distance cutoff = 1.42
  ghost atom cutoff = 1.42
  binsize = 0.71, bins = 15 15 15
  1 neighbor lists, perpetual/occasional/extra = 1 0 0
  (1) pair lj/cut, perpetual
      attributes: half, newton on
      pair build: half/bin/atomonly/newton
      stencil: half/bin/3d
      bin: standard
Per MPI rank memory allocation (min/avg/max) = 3.09 | 3.09 | 3.09 Mbytes
   Step         PotEng         KinEng         TotEng          Temp          Press         Density    
         0  -0.99119662     1.4925         0.50130338     1             -0.1169176      0.2          
     10000  -1.1221841      1.4135813      0.29139722     0.94712316     0.013222353    0.2          
     20000  -1.0772033      1.4285781      0.35137478     0.95717126    -0.010238038    0.2          
     30000  -1.0852359      1.4116296      0.32639362     0.94581546     0.011890114    0.2          
     40000  -1.0979492      1.4343297      0.3363805      0.96102493    -0.017872964    0.2          
     50000  -1.1044587      1.4158398      0.31138112     0.94863639     0.0084873579   0.2          
Loop time of 0.27271 on 1 procs for 50000 steps with 200 atoms

Performance: 15840983.979 tau/day, 183344.722 timesteps/s, 36.669 Matom-step/s
99.9% CPU use with 1 MPI tasks x no OpenMP threads

MPI task timing breakdown:
Section |  min time  |  avg time  |  max time  |%varavg| %total
---------------------------------------------------------------
Pair    | 0.073675   | 0.073675   | 0.073675   |   0.0 | 27.02
Neigh   | 0.045738   | 0.045738   | 0.045738   |   0.0 | 16.77
Comm    | 0.051962   | 0.051962   | 0.051962   |   0.0 | 19.05
Output  | 0.00019877 | 0.00019877 | 0.00019877 |   0.0 |  0.07
Modify  | 0.080302   | 0.080302   | 0.080302   |   0.0 | 29.45
Other   |            | 0.02083    |            |       |  7.64

Nlocal:            200 ave         200 max         200 min
Histogram: 1 0 0 0 0 0 0 0 0 0
Nghost:            196 ave         196 max         196 min
Histogram: 1 0 0 0 0 0 0 0 0 0
Neighs:            164 ave         164 max         164 min
Histogram: 1 0 0 0 0 0 0 0 0 0

Total # of neighbors = 164
Ave neighs/atom = 0.82
Neighbor list builds = 1066
Dangerous builds = 0
unfix       equilibration

compute rdf_all all rdf 100  # 100 bins for g(r)
variable rdf_file string rdf_${r_cut}.dat
variable rdf_file string rdf_1.12.dat
fix rdf_out all ave/time 100 1 100 c_rdf_all[*] file ${rdf_file} mode vector
fix rdf_out all ave/time 100 1 100 c_rdf_all[*] file rdf_1.12.dat mode vector

print "Production"
Production

fix         production all nve
timestep    0.001
run         150000
Generated 0 of 0 mixed pair_coeff terms from geometric mixing rule
Neighbor list info ...
  update: every = 10 steps, delay = 0 steps, check = yes
  max neighbors/atom: 2000, page size: 100000
  master list distance cutoff = 1.42
  ghost atom cutoff = 1.42
  binsize = 0.71, bins = 15 15 15
  2 neighbor lists, perpetual/occasional/extra = 1 1 0
  (1) pair lj/cut, perpetual
      attributes: half, newton on
      pair build: half/bin/atomonly/newton
      stencil: half/bin/3d
      bin: standard
  (2) compute rdf, occasional, copy from (1)
      attributes: half, newton on
      pair build: copy
      stencil: none
      bin: none
Per MPI rank memory allocation (min/avg/max) = 3.471 | 3.471 | 3.471 Mbytes
   Step         PotEng         KinEng         TotEng          Temp          Press         Density    
     50000  -1.1044587      1.4158398      0.31138112     0.94863639     0.0084873579   0.2          
     60000  -1.1444189      1.4158276      0.27140862     0.94862818     0.015350989    0.2          
     70000  -1.1088656      1.4402707      0.33140508     0.96500548    -0.021097347    0.2          
     80000  -1.0922711      1.4237122      0.3314411      0.95391102    -0.001866771    0.2          
     90000  -1.1055553      1.4570069      0.35145159     0.97621901    -0.050997657    0.2          
    100000  -1.1101982      1.4516842      0.34148605     0.97265275    -0.041676336    0.2          
    110000  -1.1283616      1.3948669      0.26650524     0.93458417     0.048406446    0.2          
    120000  -1.155897       1.442384       0.286487       0.96642142    -0.022671098    0.2          
    130000  -1.0744628      1.4359058      0.36144296     0.96208091    -0.017301973    0.2          
    140000  -1.0866739      1.4531448      0.36647086     0.97363136    -0.044686035    0.2          
    150000  -1.1165455      1.4379821      0.3214366      0.96347206    -0.016173183    0.2          
    160000  -1.118463       1.4398789      0.32141597     0.96474301    -0.021067151    0.2          
    170000  -1.1038884      1.4353317      0.33144332     0.96169626    -0.017013591    0.2          
    180000  -1.112982       1.414432       0.30144998     0.94769314     0.016853343    0.2          
    190000  -1.1375594      1.4389784      0.30141907     0.96413966    -0.011787569    0.2          
    200000  -1.1134048      1.4097976      0.29639279     0.944588       0.015003161    0.2          
Loop time of 1.01863 on 1 procs for 150000 steps with 200 atoms

Performance: 12722994.219 tau/day, 147256.878 timesteps/s, 29.451 Matom-step/s
97.5% CPU use with 1 MPI tasks x no OpenMP threads

MPI task timing breakdown:
Section |  min time  |  avg time  |  max time  |%varavg| %total
---------------------------------------------------------------
Pair    | 0.24232    | 0.24232    | 0.24232    |   0.0 | 23.79
Neigh   | 0.14933    | 0.14933    | 0.14933    |   0.0 | 14.66
Comm    | 0.16914    | 0.16914    | 0.16914    |   0.0 | 16.61
Output  | 0.00032235 | 0.00032235 | 0.00032235 |   0.0 |  0.03
Modify  | 0.3923     | 0.3923     | 0.3923     |   0.0 | 38.51
Other   |            | 0.06521    |            |       |  6.40

Nlocal:            200 ave         200 max         200 min
Histogram: 1 0 0 0 0 0 0 0 0 0
Nghost:            216 ave         216 max         216 min
Histogram: 1 0 0 0 0 0 0 0 0 0
Neighs:            177 ave         177 max         177 min
Histogram: 1 0 0 0 0 0 0 0 0 0

Total # of neighbors = 177
Ave neighs/atom = 0.885
Neighbor list builds = 3269
Dangerous builds = 0
unfix       production
unfix       rdf_out
clear
next        index
jump        SELF loop_start
variable index loop         1 ${nsteps}
variable index loop         1 16
variable r_cut              equal floor((${initialCutOff}+(${index}-1)*${step})*100)/100 #manual rounding to second decimal place
variable r_cut              equal floor((1.12246204830937+(${index}-1)*${step})*100)/100 
variable r_cut              equal floor((1.12246204830937+(2-1)*${step})*100)/100 
variable r_cut              equal floor((1.12246204830937+(2-1)*0.2)*100)/100 

print "Simulation for r_cut = ${r_cut}"
Simulation for r_cut = 1.32

variable region_name string     simulation_box_${r_cut}
variable region_name string     simulation_box_1.32
region ${region_name} block     0.0 ${box_size} 0.0 ${box_size} 0.0 ${box_size}
region simulation_box_1.32 block     0.0 ${box_size} 0.0 ${box_size} 0.0 ${box_size}
region simulation_box_1.32 block     0.0 10 0.0 ${box_size} 0.0 ${box_size}
region simulation_box_1.32 block     0.0 10 0.0 10 0.0 ${box_size}
region simulation_box_1.32 block     0.0 10 0.0 10 0.0 10
create_box 1 ${region_name}
create_box 1 simulation_box_1.32
Created orthogonal box = (0 0 0) to (10 10 10)
  1 by 1 by 1 MPI processor grid
create_atoms                    1 random ${nParticles} 234567 NULL overlap 1.3
create_atoms                    1 random 200 234567 NULL overlap 1.3
Created 200 atoms
  using lattice units in orthogonal box = (0 0 0) to (10 10 10)
  create_atoms CPU = 0.002 seconds

mass        1 1.0
velocity    all create 1.0 87242 mom yes dist gaussian
pair_style  lj/cut ${r_cut}
pair_style  lj/cut 1.32
pair_coeff  1 1 1.0 1.0
pair_modify tail yes

neighbor     0.3 bin
neigh_modify delay 0 every 10 check yes

thermo_style custom step pe ke etotal temp press density
thermo       10000

print "Equilibration"
Equilibration

fix         equilibration all nve
timestep    0.001
run         50000
Generated 0 of 0 mixed pair_coeff terms from geometric mixing rule
Neighbor list info ...
  update: every = 10 steps, delay = 0 steps, check = yes
  max neighbors/atom: 2000, page size: 100000
  master list distance cutoff = 1.62
  ghost atom cutoff = 1.62
  binsize = 0.81, bins = 13 13 13
  1 neighbor lists, perpetual/occasional/extra = 1 0 0
  (1) pair lj/cut, perpetual
      attributes: half, newton on
      pair build: half/bin/atomonly/newton
      stencil: half/bin/3d
      bin: standard
Per MPI rank memory allocation (min/avg/max) = 3.082 | 3.082 | 3.082 Mbytes
   Step         PotEng         KinEng         TotEng          Temp          Press         Density    
         0  -0.72716373     1.4925         0.76533627     1             -0.069078262    0.2          
     10000  -1.3286085      1.6312298      0.30262126     1.0929513      0.092841167    0.2          
     20000  -1.2240802      1.6005714      0.37649126     1.0724097      0.017737542    0.2          
     30000  -1.2858509      1.6283331      0.34248219     1.0910105      0.042607905    0.2          
     40000  -1.3047879      1.6199899      0.31520203     1.0854204      0.014816548    0.2          
     50000  -1.2198268      1.5723481      0.35252131     1.0534995      0.10710552     0.2          
Loop time of 0.388976 on 1 procs for 50000 steps with 200 atoms

Performance: 11106092.631 tau/day, 128542.739 timesteps/s, 25.709 Matom-step/s
100.0% CPU use with 1 MPI tasks x no OpenMP threads

MPI task timing breakdown:
Section |  min time  |  avg time  |  max time  |%varavg| %total
---------------------------------------------------------------
Pair    | 0.15135    | 0.15135    | 0.15135    |   0.0 | 38.91
Neigh   | 0.064494   | 0.064494   | 0.064494   |   0.0 | 16.58
Comm    | 0.063847   | 0.063847   | 0.063847   |   0.0 | 16.41
Output  | 0.00013173 | 0.00013173 | 0.00013173 |   0.0 |  0.03
Modify  | 0.085484   | 0.085484   | 0.085484   |   0.0 | 21.98
Other   |            | 0.02367    |            |       |  6.09

Nlocal:            200 ave         200 max         200 min
Histogram: 1 0 0 0 0 0 0 0 0 0
Nghost:            255 ave         255 max         255 min
Histogram: 1 0 0 0 0 0 0 0 0 0
Neighs:            328 ave         328 max         328 min
Histogram: 1 0 0 0 0 0 0 0 0 0

Total # of neighbors = 328
Ave neighs/atom = 1.64
Neighbor list builds = 1151
Dangerous builds = 0
unfix       equilibration

compute rdf_all all rdf 100  # 100 bins for g(r)
variable rdf_file string rdf_${r_cut}.dat
variable rdf_file string rdf_1.32.dat
fix rdf_out all ave/time 100 1 100 c_rdf_all[*] file ${rdf_file} mode vector
fix rdf_out all ave/time 100 1 100 c_rdf_all[*] file rdf_1.32.dat mode vector

print "Production"
Production

fix         production all nve
timestep    0.001
run         150000
Generated 0 of 0 mixed pair_coeff terms from geometric mixing rule
Neighbor list info ...
  update: every = 10 steps, delay = 0 steps, check = yes
  max neighbors/atom: 2000, page size: 100000
  master list distance cutoff = 1.62
  ghost atom cutoff = 1.62
  binsize = 0.81, bins = 13 13 13
  2 neighbor lists, perpetual/occasional/extra = 1 1 0
  (1) pair lj/cut, perpetual
      attributes: half, newton on
      pair build: half/bin/atomonly/newton
      stencil: half/bin/3d
      bin: standard
  (2) compute rdf, occasional, copy from (1)
      attributes: half, newton on
      pair build: copy
      stencil: none
      bin: none
Per MPI rank memory allocation (min/avg/max) = 3.463 | 3.463 | 3.463 Mbytes
   Step         PotEng         KinEng         TotEng          Temp          Press         Density    
     50000  -1.2198268      1.5723481      0.35252131     1.0534995      0.10710552     0.2          
     60000  -1.3422703      1.6506931      0.30842284     1.105992       0.01262521     0.2          
     70000  -1.2411371      1.610746       0.36960897     1.0792268      0.025729885    0.2          
     80000  -1.2553072      1.5815873      0.32628003     1.05969        0.07349714     0.2          
     90000  -1.3667053      1.6252717      0.25856643     1.0889593      0.089176492    0.2          
    100000  -1.2709737      1.6273345      0.35636087     1.0903414     -0.0018737905   0.2          
    110000  -1.3211535      1.6402674      0.31911395     1.0990066      0.017448325    0.2          
    120000  -1.2463932      1.6181553      0.37176209     1.0841911      0.06116957     0.2          
    130000  -1.25527        1.6082075      0.35293747     1.077526       0.069309952    0.2          
    140000  -1.2709271      1.6145771      0.34365004     1.0817937      0.013115382    0.2          
    150000  -1.2545254      1.6074737      0.35294838     1.0770343      0.066535433    0.2          
    160000  -1.2517058      1.5841751      0.33246932     1.0614238      0.076590977    0.2          
    170000  -1.2776049      1.604393       0.32678816     1.0749702      0.061892258    0.2          
    180000  -1.2422034      1.6032608      0.36105738     1.0742116      0.049840081    0.2          
    190000  -1.2701111      1.5970044      0.3268933      1.0700197      0.092351537    0.2          
    200000  -1.218642       1.6128672      0.39422516     1.080648       0.0078282836   0.2          
Loop time of 1.28727 on 1 procs for 150000 steps with 200 atoms

Performance: 10067831.870 tau/day, 116525.832 timesteps/s, 23.305 Matom-step/s
98.5% CPU use with 1 MPI tasks x no OpenMP threads

MPI task timing breakdown:
Section |  min time  |  avg time  |  max time  |%varavg| %total
---------------------------------------------------------------
Pair    | 0.44488    | 0.44488    | 0.44488    |   0.0 | 34.56
Neigh   | 0.18594    | 0.18594    | 0.18594    |   0.0 | 14.44
Comm    | 0.19267    | 0.19267    | 0.19267    |   0.0 | 14.97
Output  | 0.00034738 | 0.00034738 | 0.00034738 |   0.0 |  0.03
Modify  | 0.39242    | 0.39242    | 0.39242    |   0.0 | 30.48
Other   |            | 0.07101    |            |       |  5.52

Nlocal:            200 ave         200 max         200 min
Histogram: 1 0 0 0 0 0 0 0 0 0
Nghost:            273 ave         273 max         273 min
Histogram: 1 0 0 0 0 0 0 0 0 0
Neighs:            313 ave         313 max         313 min
Histogram: 1 0 0 0 0 0 0 0 0 0

Total # of neighbors = 313
Ave neighs/atom = 1.565
Neighbor list builds = 3418
Dangerous builds = 0
unfix       production
unfix       rdf_out
clear
next        index
jump        SELF loop_start
variable index loop         1 ${nsteps}
variable index loop         1 16
variable r_cut              equal floor((${initialCutOff}+(${index}-1)*${step})*100)/100 #manual rounding to second decimal place
variable r_cut              equal floor((1.12246204830937+(${index}-1)*${step})*100)/100 
variable r_cut              equal floor((1.12246204830937+(3-1)*${step})*100)/100 
variable r_cut              equal floor((1.12246204830937+(3-1)*0.2)*100)/100 

print "Simulation for r_cut = ${r_cut}"
Simulation for r_cut = 1.52

variable region_name string     simulation_box_${r_cut}
variable region_name string     simulation_box_1.52
region ${region_name} block     0.0 ${box_size} 0.0 ${box_size} 0.0 ${box_size}
region simulation_box_1.52 block     0.0 ${box_size} 0.0 ${box_size} 0.0 ${box_size}
region simulation_box_1.52 block     0.0 10 0.0 ${box_size} 0.0 ${box_size}
region simulation_box_1.52 block     0.0 10 0.0 10 0.0 ${box_size}
region simulation_box_1.52 block     0.0 10 0.0 10 0.0 10
create_box 1 ${region_name}
create_box 1 simulation_box_1.52
Created orthogonal box = (0 0 0) to (10 10 10)
  1 by 1 by 1 MPI processor grid
create_atoms                    1 random ${nParticles} 234567 NULL overlap 1.3
create_atoms                    1 random 200 234567 NULL overlap 1.3
Created 200 atoms
  using lattice units in orthogonal box = (0 0 0) to (10 10 10)
  create_atoms CPU = 0.002 seconds

mass        1 1.0
velocity    all create 1.0 87242 mom yes dist gaussian
pair_style  lj/cut ${r_cut}
pair_style  lj/cut 1.52
pair_coeff  1 1 1.0 1.0
pair_modify tail yes

neighbor     0.3 bin
neigh_modify delay 0 every 10 check yes

thermo_style custom step pe ke etotal temp press density
thermo       10000

print "Equilibration"
Equilibration

fix         equilibration all nve
timestep    0.001
run         50000
Generated 0 of 0 mixed pair_coeff terms from geometric mixing rule
Neighbor list info ...
  update: every = 10 steps, delay = 0 steps, check = yes
  max neighbors/atom: 2000, page size: 100000
  master list distance cutoff = 1.82
  ghost atom cutoff = 1.82
  binsize = 0.91, bins = 11 11 11
  1 neighbor lists, perpetual/occasional/extra = 1 0 0
  (1) pair lj/cut, perpetual
      attributes: half, newton on
      pair build: half/bin/atomonly/newton
      stencil: half/bin/3d
      bin: standard
Per MPI rank memory allocation (min/avg/max) = 3.076 | 3.076 | 3.076 Mbytes
   Step         PotEng         KinEng         TotEng          Temp          Press         Density    
         0  -0.80716172     1.4925         0.68533828     1             -0.095688066    0.2          
     10000  -1.4032335      1.8674783      0.46424481     1.2512418      0.075367758    0.2          
     20000  -1.3237933      1.8341586      0.5103653      1.228917       0.051101447    0.2          
     30000  -1.2989269      1.8109102      0.51198321     1.2133401      0.085922977    0.2          
     40000  -1.3912431      1.8598009      0.46855777     1.2460978      0.056701652    0.2          
     50000  -1.362689       1.8492024      0.48651342     1.2389966      0.066400281    0.2          
Loop time of 0.510883 on 1 procs for 50000 steps with 200 atoms

Performance: 8455948.419 tau/day, 97869.773 timesteps/s, 19.574 Matom-step/s
100.0% CPU use with 1 MPI tasks x no OpenMP threads

MPI task timing breakdown:
Section |  min time  |  avg time  |  max time  |%varavg| %total
---------------------------------------------------------------
Pair    | 0.23264    | 0.23264    | 0.23264    |   0.0 | 45.54
Neigh   | 0.092944   | 0.092944   | 0.092944   |   0.0 | 18.19
Comm    | 0.076614   | 0.076614   | 0.076614   |   0.0 | 15.00
Output  | 0.0001233  | 0.0001233  | 0.0001233  |   0.0 |  0.02
Modify  | 0.086348   | 0.086348   | 0.086348   |   0.0 | 16.90
Other   |            | 0.02222    |            |       |  4.35

Nlocal:            200 ave         200 max         200 min
Histogram: 1 0 0 0 0 0 0 0 0 0
Nghost:            310 ave         310 max         310 min
Histogram: 1 0 0 0 0 0 0 0 0 0
Neighs:            488 ave         488 max         488 min
Histogram: 1 0 0 0 0 0 0 0 0 0

Total # of neighbors = 488
Ave neighs/atom = 2.44
Neighbor list builds = 1223
Dangerous builds = 0
unfix       equilibration

compute rdf_all all rdf 100  # 100 bins for g(r)
variable rdf_file string rdf_${r_cut}.dat
variable rdf_file string rdf_1.52.dat
fix rdf_out all ave/time 100 1 100 c_rdf_all[*] file ${rdf_file} mode vector
fix rdf_out all ave/time 100 1 100 c_rdf_all[*] file rdf_1.52.dat mode vector

print "Production"
Production

fix         production all nve
timestep    0.001
run         150000
Generated 0 of 0 mixed pair_coeff terms from geometric mixing rule
Neighbor list info ...
  update: every = 10 steps, delay = 0 steps, check = yes
  max neighbors/atom: 2000, page size: 100000
  master list distance cutoff = 1.82
  ghost atom cutoff = 1.82
  binsize = 0.91, bins = 11 11 11
  2 neighbor lists, perpetual/occasional/extra = 1 1 0
  (1) pair lj/cut, perpetual
      attributes: half, newton on
      pair build: half/bin/atomonly/newton
      stencil: half/bin/3d
      bin: standard
  (2) compute rdf, occasional, copy from (1)
      attributes: half, newton on
      pair build: copy
      stencil: none
      bin: none
Per MPI rank memory allocation (min/avg/max) = 3.457 | 3.457 | 3.457 Mbytes
   Step         PotEng         KinEng         TotEng          Temp          Press         Density    
     50000  -1.362689       1.8492024      0.48651342     1.2389966      0.066400281    0.2          
     60000  -1.3562094      1.8559832      0.49977384     1.2435398      0.057376895    0.2          
     70000  -1.3171103      1.8090531      0.4919428      1.2120959      0.071696612    0.2          
     80000  -1.4211614      1.8909506      0.46978919     1.2669686      0.058554036    0.2          
     90000  -1.2715808      1.8086627      0.53708191     1.2118343      0.04896539     0.2          
    100000  -1.3465638      1.8272426      0.4806788      1.2242831      0.10145917     0.2          
    110000  -1.344335       1.8365365      0.49220156     1.2305102      0.11057818     0.2          
    120000  -1.2947016      1.8255769      0.53087526     1.2231671      0.034778173    0.2          
    130000  -1.2998457      1.8067622      0.5069165      1.210561       0.05602512     0.2          
    140000  -1.4223539      1.8994757      0.47712179     1.2726806      0.088843505    0.2          
    150000  -1.2972777      1.8039964      0.50671872     1.2087078      0.086709913    0.2          
    160000  -1.234493       1.7730997      0.53860675     1.1880065      0.13078653     0.2          
    170000  -1.3134422      1.8148096      0.50136737     1.2159528      0.11998778     0.2          
    180000  -1.3615028      1.8614316      0.4999289      1.2471904      0.07106722     0.2          
    190000  -1.291628       1.7839706      0.49234259     1.1952902      0.1849874      0.2          
    200000  -1.3876634      1.8722514      0.48458799     1.2544398      0.12523604     0.2          
Loop time of 1.69257 on 1 procs for 150000 steps with 200 atoms

Performance: 7657009.782 tau/day, 88622.798 timesteps/s, 17.725 Matom-step/s
98.6% CPU use with 1 MPI tasks x no OpenMP threads

MPI task timing breakdown:
Section |  min time  |  avg time  |  max time  |%varavg| %total
---------------------------------------------------------------
Pair    | 0.70084    | 0.70084    | 0.70084    |   0.0 | 41.41
Neigh   | 0.27722    | 0.27722    | 0.27722    |   0.0 | 16.38
Comm    | 0.23167    | 0.23167    | 0.23167    |   0.0 | 13.69
Output  | 0.00039932 | 0.00039932 | 0.00039932 |   0.0 |  0.02
Modify  | 0.41609    | 0.41609    | 0.41609    |   0.0 | 24.58
Other   |            | 0.06635    |            |       |  3.92

Nlocal:            200 ave         200 max         200 min
Histogram: 1 0 0 0 0 0 0 0 0 0
Nghost:            303 ave         303 max         303 min
Histogram: 1 0 0 0 0 0 0 0 0 0
Neighs:            503 ave         503 max         503 min
Histogram: 1 0 0 0 0 0 0 0 0 0

Total # of neighbors = 503
Ave neighs/atom = 2.515
Neighbor list builds = 3655
Dangerous builds = 0
unfix       production
unfix       rdf_out
clear
next        index
jump        SELF loop_start
variable index loop         1 ${nsteps}
variable index loop         1 16
variable r_cut              equal floor((${initialCutOff}+(${index}-1)*${step})*100)/100 #manual rounding to second decimal place
variable r_cut              equal floor((1.12246204830937+(${index}-1)*${step})*100)/100 
variable r_cut              equal floor((1.12246204830937+(4-1)*${step})*100)/100 
variable r_cut              equal floor((1.12246204830937+(4-1)*0.2)*100)/100 

print "Simulation for r_cut = ${r_cut}"
Simulation for r_cut = 1.72

variable region_name string     simulation_box_${r_cut}
variable region_name string     simulation_box_1.72
region ${region_name} block     0.0 ${box_size} 0.0 ${box_size} 0.0 ${box_size}
region simulation_box_1.72 block     0.0 ${box_size} 0.0 ${box_size} 0.0 ${box_size}
region simulation_box_1.72 block     0.0 10 0.0 ${box_size} 0.0 ${box_size}
region simulation_box_1.72 block     0.0 10 0.0 10 0.0 ${box_size}
region simulation_box_1.72 block     0.0 10 0.0 10 0.0 10
create_box 1 ${region_name}
create_box 1 simulation_box_1.72
Created orthogonal box = (0 0 0) to (10 10 10)
  1 by 1 by 1 MPI processor grid
create_atoms                    1 random ${nParticles} 234567 NULL overlap 1.3
create_atoms                    1 random 200 234567 NULL overlap 1.3
Created 200 atoms
  using lattice units in orthogonal box = (0 0 0) to (10 10 10)
  create_atoms CPU = 0.002 seconds

mass        1 1.0
velocity    all create 1.0 87242 mom yes dist gaussian
pair_style  lj/cut ${r_cut}
pair_style  lj/cut 1.72
pair_coeff  1 1 1.0 1.0
pair_modify tail yes

neighbor     0.3 bin
neigh_modify delay 0 every 10 check yes

thermo_style custom step pe ke etotal temp press density
thermo       10000

print "Equilibration"
Equilibration

fix         equilibration all nve
timestep    0.001
run         50000
Generated 0 of 0 mixed pair_coeff terms from geometric mixing rule
Neighbor list info ...
  update: every = 10 steps, delay = 0 steps, check = yes
  max neighbors/atom: 2000, page size: 100000
  master list distance cutoff = 2.02
  ghost atom cutoff = 2.02
  binsize = 1.01, bins = 10 10 10
  1 neighbor lists, perpetual/occasional/extra = 1 0 0
  (1) pair lj/cut, perpetual
      attributes: half, newton on
      pair build: half/bin/atomonly/newton
      stencil: half/bin/3d
      bin: standard
Per MPI rank memory allocation (min/avg/max) = 3.073 | 3.073 | 3.073 Mbytes
   Step         PotEng         KinEng         TotEng          Temp          Press         Density    
         0  -0.8641776      1.4925         0.6283224      1             -0.1170568      0.2          
     10000  -1.4392569      1.9881993      0.54894234     1.3321268      0.075709699    0.2          
     20000  -1.4328981      1.9920748      0.55917671     1.3347235      0.12154056     0.2          
     30000  -1.3281568      1.8991828      0.571026       1.2724843      0.12546956     0.2          
     40000  -1.4389427      1.9877218      0.54877911     1.3318069      0.14114047     0.2          
     50000  -1.4659136      2.0147313      0.54881772     1.3499037      0.077613489    0.2          
Loop time of 0.668459 on 1 procs for 50000 steps with 200 atoms

Performance: 6462629.979 tau/day, 74798.958 timesteps/s, 14.960 Matom-step/s
100.0% CPU use with 1 MPI tasks x no OpenMP threads

MPI task timing breakdown:
Section |  min time  |  avg time  |  max time  |%varavg| %total
---------------------------------------------------------------
Pair    | 0.34136    | 0.34136    | 0.34136    |   0.0 | 51.07
Neigh   | 0.11994    | 0.11994    | 0.11994    |   0.0 | 17.94
Comm    | 0.089275   | 0.089275   | 0.089275   |   0.0 | 13.36
Output  | 0.00012145 | 0.00012145 | 0.00012145 |   0.0 |  0.02
Modify  | 0.090106   | 0.090106   | 0.090106   |   0.0 | 13.48
Other   |            | 0.02766    |            |       |  4.14

Nlocal:            200 ave         200 max         200 min
Histogram: 1 0 0 0 0 0 0 0 0 0
Nghost:            362 ave         362 max         362 min
Histogram: 1 0 0 0 0 0 0 0 0 0
Neighs:            698 ave         698 max         698 min
Histogram: 1 0 0 0 0 0 0 0 0 0

Total # of neighbors = 698
Ave neighs/atom = 3.49
Neighbor list builds = 1246
Dangerous builds = 0
unfix       equilibration

compute rdf_all all rdf 100  # 100 bins for g(r)
variable rdf_file string rdf_${r_cut}.dat
variable rdf_file string rdf_1.72.dat
fix rdf_out all ave/time 100 1 100 c_rdf_all[*] file ${rdf_file} mode vector
fix rdf_out all ave/time 100 1 100 c_rdf_all[*] file rdf_1.72.dat mode vector

print "Production"
Production

fix         production all nve
timestep    0.001
run         150000
Generated 0 of 0 mixed pair_coeff terms from geometric mixing rule
Neighbor list info ...
  update: every = 10 steps, delay = 0 steps, check = yes
  max neighbors/atom: 2000, page size: 100000
  master list distance cutoff = 2.02
  ghost atom cutoff = 2.02
  binsize = 1.01, bins = 10 10 10
  2 neighbor lists, perpetual/occasional/extra = 1 1 0
  (1) pair lj/cut, perpetual
      attributes: half, newton on
      pair build: half/bin/atomonly/newton
      stencil: half/bin/3d
      bin: standard
  (2) compute rdf, occasional, copy from (1)
      attributes: half, newton on
      pair build: copy
      stencil: none
      bin: none
Per MPI rank memory allocation (min/avg/max) = 3.455 | 3.455 | 3.455 Mbytes
   Step         PotEng         KinEng         TotEng          Temp          Press         Density    
     50000  -1.4659136      2.0147313      0.54881772     1.3499037      0.077613489    0.2          
     60000  -1.3416349      1.9194653      0.57783043     1.2860739      0.19853884     0.2          
     70000  -1.507894       2.0471083      0.53921421     1.3715968      0.15545507     0.2          
     80000  -1.4136483      1.9705893      0.55694097     1.3203278      0.10625623     0.2          
     90000  -1.3716671      1.9464219      0.57475482     1.3041353      0.049114004    0.2          
    100000  -1.4557695      2.0134871      0.5577176      1.3490701      0.10764158     0.2          
    110000  -1.3509413      1.9211823      0.57024102     1.2872243      0.12430253     0.2          
    120000  -1.3611636      1.9515077      0.59034408     1.3075428      0.093992607    0.2          
    130000  -1.3658307      1.935196       0.56936537     1.2966138      0.089896285    0.2          
    140000  -1.2864801      1.872623       0.5861429      1.2546888      0.11056893     0.2          
    150000  -1.4409061      1.9848254      0.54391928     1.3298662      0.10859933     0.2          
    160000  -1.4318324      1.9806191      0.54878677     1.327048       0.10352716     0.2          
    170000  -1.3042802      1.8828543      0.57857414     1.2615439      0.11409198     0.2          
    180000  -1.4330498      1.9847538      0.55170405     1.3298183      0.16873146     0.2          
    190000  -1.3285312      1.8963145      0.56778325     1.2705625      0.12609783     0.2          
    200000  -1.5368272      2.0780335      0.54120635     1.3923173      0.09175976     0.2          
Loop time of 2.15949 on 1 procs for 150000 steps with 200 atoms

Performance: 6001428.426 tau/day, 69460.977 timesteps/s, 13.892 Matom-step/s
99.6% CPU use with 1 MPI tasks x no OpenMP threads

MPI task timing breakdown:
Section |  min time  |  avg time  |  max time  |%varavg| %total
---------------------------------------------------------------
Pair    | 1.0173     | 1.0173     | 1.0173     |   0.0 | 47.11
Neigh   | 0.35921    | 0.35921    | 0.35921    |   0.0 | 16.63
Comm    | 0.25993    | 0.25993    | 0.25993    |   0.0 | 12.04
Output  | 0.00036636 | 0.00036636 | 0.00036636 |   0.0 |  0.02
Modify  | 0.43929    | 0.43929    | 0.43929    |   0.0 | 20.34
Other   |            | 0.08336    |            |       |  3.86

Nlocal:            200 ave         200 max         200 min
Histogram: 1 0 0 0 0 0 0 0 0 0
Nghost:            335 ave         335 max         335 min
Histogram: 1 0 0 0 0 0 0 0 0 0
Neighs:            723 ave         723 max         723 min
Histogram: 1 0 0 0 0 0 0 0 0 0

Total # of neighbors = 723
Ave neighs/atom = 3.615
Neighbor list builds = 3773
Dangerous builds = 0
unfix       production
unfix       rdf_out
clear
next        index
jump        SELF loop_start
variable index loop         1 ${nsteps}
variable index loop         1 16
variable r_cut              equal floor((${initialCutOff}+(${index}-1)*${step})*100)/100 #manual rounding to second decimal place
variable r_cut              equal floor((1.12246204830937+(${index}-1)*${step})*100)/100 
variable r_cut              equal floor((1.12246204830937+(5-1)*${step})*100)/100 
variable r_cut              equal floor((1.12246204830937+(5-1)*0.2)*100)/100 

print "Simulation for r_cut = ${r_cut}"
Simulation for r_cut = 1.92

variable region_name string     simulation_box_${r_cut}
variable region_name string     simulation_box_1.92
region ${region_name} block     0.0 ${box_size} 0.0 ${box_size} 0.0 ${box_size}
region simulation_box_1.92 block     0.0 ${box_size} 0.0 ${box_size} 0.0 ${box_size}
region simulation_box_1.92 block     0.0 10 0.0 ${box_size} 0.0 ${box_size}
region simulation_box_1.92 block     0.0 10 0.0 10 0.0 ${box_size}
region simulation_box_1.92 block     0.0 10 0.0 10 0.0 10
create_box 1 ${region_name}
create_box 1 simulation_box_1.92
Created orthogonal box = (0 0 0) to (10 10 10)
  1 by 1 by 1 MPI processor grid
create_atoms                    1 random ${nParticles} 234567 NULL overlap 1.3
create_atoms                    1 random 200 234567 NULL overlap 1.3
Created 200 atoms
  using lattice units in orthogonal box = (0 0 0) to (10 10 10)
  create_atoms CPU = 0.002 seconds

mass        1 1.0
velocity    all create 1.0 87242 mom yes dist gaussian
pair_style  lj/cut ${r_cut}
pair_style  lj/cut 1.92
pair_coeff  1 1 1.0 1.0
pair_modify tail yes

neighbor     0.3 bin
neigh_modify delay 0 every 10 check yes

thermo_style custom step pe ke etotal temp press density
thermo       10000

print "Equilibration"
Equilibration

fix         equilibration all nve
timestep    0.001
run         50000
Generated 0 of 0 mixed pair_coeff terms from geometric mixing rule
Neighbor list info ...
  update: every = 10 steps, delay = 0 steps, check = yes
  max neighbors/atom: 2000, page size: 100000
  master list distance cutoff = 2.22
  ghost atom cutoff = 2.22
  binsize = 1.11, bins = 10 10 10
  1 neighbor lists, perpetual/occasional/extra = 1 0 0
  (1) pair lj/cut, perpetual
      attributes: half, newton on
      pair build: half/bin/atomonly/newton
      stencil: half/bin/3d
      bin: standard
Per MPI rank memory allocation (min/avg/max) = 3.074 | 3.074 | 3.074 Mbytes
   Step         PotEng         KinEng         TotEng          Temp          Press         Density    
         0  -0.8834701      1.4925         0.6090299      1             -0.12451058     0.2          
     10000  -1.4087253      2.003302       0.59457663     1.3422459      0.11507217     0.2          
     20000  -1.3729222      1.9623969      0.58947461     1.3148388      0.14774493     0.2          
     30000  -1.4977287      2.0793632      0.58163451     1.3932082      0.1125509      0.2          
     40000  -1.3992872      1.9778511      0.57856396     1.3251934      0.11930385     0.2          
     50000  -1.3704794      1.961727       0.59124756     1.3143899      0.13851258     0.2          
Loop time of 0.826338 on 1 procs for 50000 steps with 200 atoms

Performance: 5227883.022 tau/day, 60507.905 timesteps/s, 12.102 Matom-step/s
100.0% CPU use with 1 MPI tasks x no OpenMP threads

MPI task timing breakdown:
Section |  min time  |  avg time  |  max time  |%varavg| %total
---------------------------------------------------------------
Pair    | 0.47326    | 0.47326    | 0.47326    |   0.0 | 57.27
Neigh   | 0.12883    | 0.12883    | 0.12883    |   0.0 | 15.59
Comm    | 0.10137    | 0.10137    | 0.10137    |   0.0 | 12.27
Output  | 0.00014092 | 0.00014092 | 0.00014092 |   0.0 |  0.02
Modify  | 0.092896   | 0.092896   | 0.092896   |   0.0 | 11.24
Other   |            | 0.02985    |            |       |  3.61

Nlocal:            200 ave         200 max         200 min
Histogram: 1 0 0 0 0 0 0 0 0 0
Nghost:            439 ave         439 max         439 min
Histogram: 1 0 0 0 0 0 0 0 0 0
Neighs:            897 ave         897 max         897 min
Histogram: 1 0 0 0 0 0 0 0 0 0

Total # of neighbors = 897
Ave neighs/atom = 4.485
Neighbor list builds = 1257
Dangerous builds = 0
unfix       equilibration

compute rdf_all all rdf 100  # 100 bins for g(r)
variable rdf_file string rdf_${r_cut}.dat
variable rdf_file string rdf_1.92.dat
fix rdf_out all ave/time 100 1 100 c_rdf_all[*] file ${rdf_file} mode vector
fix rdf_out all ave/time 100 1 100 c_rdf_all[*] file rdf_1.92.dat mode vector

print "Production"
Production

fix         production all nve
timestep    0.001
run         150000
Generated 0 of 0 mixed pair_coeff terms from geometric mixing rule
Neighbor list info ...
  update: every = 10 steps, delay = 0 steps, check = yes
  max neighbors/atom: 2000, page size: 100000
  master list distance cutoff = 2.22
  ghost atom cutoff = 2.22
  binsize = 1.11, bins = 10 10 10
  2 neighbor lists, perpetual/occasional/extra = 1 1 0
  (1) pair lj/cut, perpetual
      attributes: half, newton on
      pair build: half/bin/atomonly/newton
      stencil: half/bin/3d
      bin: standard
  (2) compute rdf, occasional, copy from (1)
      attributes: half, newton on
      pair build: copy
      stencil: none
      bin: none
Per MPI rank memory allocation (min/avg/max) = 3.455 | 3.455 | 3.455 Mbytes
   Step         PotEng         KinEng         TotEng          Temp          Press         Density    
     50000  -1.3704794      1.961727       0.59124756     1.3143899      0.13851258     0.2          
     60000  -1.3575411      1.9498401      0.59229899     1.3064255      0.18546053     0.2          
     70000  -1.3787669      1.9648046      0.58603772     1.316452       0.12091062     0.2          
     80000  -1.3506391      1.9394074      0.58876825     1.2994354      0.11022201     0.2          
     90000  -1.4860951      2.0725607      0.58646555     1.3886504      0.094218322    0.2          
    100000  -1.4148762      1.9969874      0.58211122     1.338015       0.12506774     0.2          
    110000  -1.2640054      1.8590173      0.59501191     1.2455727      0.1626458      0.2          
    120000  -1.4166793      1.9971004      0.58042116     1.3380907      0.12599949     0.2          
    130000  -1.3701232      1.9669218      0.59679859     1.3178705      0.11202432     0.2          
    140000  -1.3922442      1.9771875      0.58494325     1.3247487      0.097818907    0.2          
    150000  -1.4444767      2.0207712      0.57629452     1.3539506      0.13862704     0.2          
    160000  -1.3536378      1.9466767      0.5930389      1.304306       0.15150192     0.2          
    170000  -1.4165901      1.9904947      0.57390453     1.3336648      0.17340822     0.2          
    180000  -1.3403934      1.9323184      0.59192495     1.2946857      0.16554206     0.2          
    190000  -1.3899083      1.9795219      0.58961354     1.3263128      0.14353955     0.2          
    200000  -1.4207924      2.0135687      0.59277632     1.3491248      0.081267473    0.2          
Loop time of 2.61247 on 1 procs for 150000 steps with 200 atoms

Performance: 4960825.179 tau/day, 57416.958 timesteps/s, 11.483 Matom-step/s
98.8% CPU use with 1 MPI tasks x no OpenMP threads

MPI task timing breakdown:
Section |  min time  |  avg time  |  max time  |%varavg| %total
---------------------------------------------------------------
Pair    | 1.3838     | 1.3838     | 1.3838     |   0.0 | 52.97
Neigh   | 0.38152    | 0.38152    | 0.38152    |   0.0 | 14.60
Comm    | 0.30113    | 0.30113    | 0.30113    |   0.0 | 11.53
Output  | 0.00034738 | 0.00034738 | 0.00034738 |   0.0 |  0.01
Modify  | 0.45512    | 0.45512    | 0.45512    |   0.0 | 17.42
Other   |            | 0.09052    |            |       |  3.46

Nlocal:            200 ave         200 max         200 min
Histogram: 1 0 0 0 0 0 0 0 0 0
Nghost:            446 ave         446 max         446 min
Histogram: 1 0 0 0 0 0 0 0 0 0
Neighs:            911 ave         911 max         911 min
Histogram: 1 0 0 0 0 0 0 0 0 0

Total # of neighbors = 911
Ave neighs/atom = 4.555
Neighbor list builds = 3751
Dangerous builds = 0
unfix       production
unfix       rdf_out
clear
next        index
jump        SELF loop_start
variable index loop         1 ${nsteps}
variable index loop         1 16
variable r_cut              equal floor((${initialCutOff}+(${index}-1)*${step})*100)/100 #manual rounding to second decimal place
variable r_cut              equal floor((1.12246204830937+(${index}-1)*${step})*100)/100 
variable r_cut              equal floor((1.12246204830937+(6-1)*${step})*100)/100 
variable r_cut              equal floor((1.12246204830937+(6-1)*0.2)*100)/100 

print "Simulation for r_cut = ${r_cut}"
Simulation for r_cut = 2.12

variable region_name string     simulation_box_${r_cut}
variable region_name string     simulation_box_2.12
region ${region_name} block     0.0 ${box_size} 0.0 ${box_size} 0.0 ${box_size}
region simulation_box_2.12 block     0.0 ${box_size} 0.0 ${box_size} 0.0 ${box_size}
region simulation_box_2.12 block     0.0 10 0.0 ${box_size} 0.0 ${box_size}
region simulation_box_2.12 block     0.0 10 0.0 10 0.0 ${box_size}
region simulation_box_2.12 block     0.0 10 0.0 10 0.0 10
create_box 1 ${region_name}
create_box 1 simulation_box_2.12
Created orthogonal box = (0 0 0) to (10 10 10)
  1 by 1 by 1 MPI processor grid
create_atoms                    1 random ${nParticles} 234567 NULL overlap 1.3
create_atoms                    1 random 200 234567 NULL overlap 1.3
Created 200 atoms
  using lattice units in orthogonal box = (0 0 0) to (10 10 10)
  create_atoms CPU = 0.002 seconds

mass        1 1.0
velocity    all create 1.0 87242 mom yes dist gaussian
pair_style  lj/cut ${r_cut}
pair_style  lj/cut 2.12
pair_coeff  1 1 1.0 1.0
pair_modify tail yes

neighbor     0.3 bin
neigh_modify delay 0 every 10 check yes

thermo_style custom step pe ke etotal temp press density
thermo       10000

print "Equilibration"
Equilibration

fix         equilibration all nve
timestep    0.001
run         50000
Generated 0 of 0 mixed pair_coeff terms from geometric mixing rule
Neighbor list info ...
  update: every = 10 steps, delay = 0 steps, check = yes
  max neighbors/atom: 2000, page size: 100000
  master list distance cutoff = 2.42
  ghost atom cutoff = 2.42
  binsize = 1.21, bins = 9 9 9
  1 neighbor lists, perpetual/occasional/extra = 1 0 0
  (1) pair lj/cut, perpetual
      attributes: half, newton on
      pair build: half/bin/atomonly/newton
      stencil: half/bin/3d
      bin: standard
Per MPI rank memory allocation (min/avg/max) = 3.072 | 3.072 | 3.072 Mbytes
   Step         PotEng         KinEng         TotEng          Temp          Press         Density    
         0  -0.88032984     1.4925         0.61217016     1             -0.12328254     0.2          
     10000  -1.3579117      1.9603098      0.60239801     1.3134404      0.070920939    0.2          
     20000  -1.4271257      2.0253896      0.59826383     1.3570449      0.15236064     0.2          
     30000  -1.4261946      2.0110736      0.58487901     1.347453       0.22884917     0.2          
     40000  -1.4789186      2.0594053      0.58048666     1.379836       0.19616267     0.2          
     50000  -1.4292549      2.0262935      0.59703868     1.3576506      0.16857738     0.2          
Loop time of 1.07548 on 1 procs for 50000 steps with 200 atoms

Performance: 4016798.112 tau/day, 46490.719 timesteps/s, 9.298 Matom-step/s
100.0% CPU use with 1 MPI tasks x no OpenMP threads

MPI task timing breakdown:
Section |  min time  |  avg time  |  max time  |%varavg| %total
---------------------------------------------------------------
Pair    | 0.67221    | 0.67221    | 0.67221    |   0.0 | 62.50
Neigh   | 0.16433    | 0.16433    | 0.16433    |   0.0 | 15.28
Comm    | 0.11729    | 0.11729    | 0.11729    |   0.0 | 10.91
Output  | 0.00012377 | 0.00012377 | 0.00012377 |   0.0 |  0.01
Modify  | 0.09328    | 0.09328    | 0.09328    |   0.0 |  8.67
Other   |            | 0.02824    |            |       |  2.63

Nlocal:            200 ave         200 max         200 min
Histogram: 1 0 0 0 0 0 0 0 0 0
Nghost:            426 ave         426 max         426 min
Histogram: 1 0 0 0 0 0 0 0 0 0
Neighs:           1186 ave        1186 max        1186 min
Histogram: 1 0 0 0 0 0 0 0 0 0

Total # of neighbors = 1186
Ave neighs/atom = 5.93
Neighbor list builds = 1247
Dangerous builds = 0
unfix       equilibration

compute rdf_all all rdf 100  # 100 bins for g(r)
variable rdf_file string rdf_${r_cut}.dat
variable rdf_file string rdf_2.12.dat
fix rdf_out all ave/time 100 1 100 c_rdf_all[*] file ${rdf_file} mode vector
fix rdf_out all ave/time 100 1 100 c_rdf_all[*] file rdf_2.12.dat mode vector

print "Production"
Production

fix         production all nve
timestep    0.001
run         150000
Generated 0 of 0 mixed pair_coeff terms from geometric mixing rule
Neighbor list info ...
  update: every = 10 steps, delay = 0 steps, check = yes
  max neighbors/atom: 2000, page size: 100000
  master list distance cutoff = 2.42
  ghost atom cutoff = 2.42
  binsize = 1.21, bins = 9 9 9
  2 neighbor lists, perpetual/occasional/extra = 1 1 0
  (1) pair lj/cut, perpetual
      attributes: half, newton on
      pair build: half/bin/atomonly/newton
      stencil: half/bin/3d
      bin: standard
  (2) compute rdf, occasional, copy from (1)
      attributes: half, newton on
      pair build: copy
      stencil: none
      bin: none
Per MPI rank memory allocation (min/avg/max) = 3.453 | 3.453 | 3.453 Mbytes
   Step         PotEng         KinEng         TotEng          Temp          Press         Density    
     50000  -1.4292549      2.0262935      0.59703868     1.3576506      0.16857738     0.2          
     60000  -1.5484126      2.1326605      0.58424788     1.4289183      0.11973651     0.2          
     70000  -1.5450353      2.1238589      0.57882363     1.4230211      0.16436958     0.2          
     80000  -1.409425       2.007166       0.59774097     1.3448348      0.109603       0.2          
     90000  -1.4152766      2.016904       0.60162733     1.3513594      0.1020889      0.2          
    100000  -1.4029458      1.999928       0.59698218     1.3399852      0.12528968     0.2          
    110000  -1.4485502      2.0377797      0.58922945     1.3653465      0.080819528    0.2          
    120000  -1.487664       2.0762854      0.58862137     1.391146       0.11357496     0.2          
    130000  -1.3906396      1.9818925      0.59125288     1.3279011      0.18228085     0.2          
    140000  -1.4128786      2.0124551      0.59957652     1.3483786      0.10801423     0.2          
    150000  -1.4224073      2.020894       0.59848671     1.3540328      0.067767802    0.2          
    160000  -1.4645584      2.0615006      0.59694221     1.3812399      0.068960247    0.2          
    170000  -1.4697534      2.0581791      0.5884257      1.3790145      0.11474696     0.2          
    180000  -1.4629709      2.0490081      0.58603715     1.3728697      0.13115291     0.2          
    190000  -1.3752294      1.9719008      0.59667134     1.3212066      0.19807947     0.2          
    200000  -1.4573566      2.0502504      0.5928938      1.3737021      0.10863853     0.2          
Loop time of 3.3354 on 1 procs for 150000 steps with 200 atoms

Performance: 3885589.378 tau/day, 44972.099 timesteps/s, 8.994 Matom-step/s
99.6% CPU use with 1 MPI tasks x no OpenMP threads

MPI task timing breakdown:
Section |  min time  |  avg time  |  max time  |%varavg| %total
---------------------------------------------------------------
Pair    | 1.9455     | 1.9455     | 1.9455     |   0.0 | 58.33
Neigh   | 0.48871    | 0.48871    | 0.48871    |   0.0 | 14.65
Comm    | 0.34413    | 0.34413    | 0.34413    |   0.0 | 10.32
Output  | 0.00040164 | 0.00040164 | 0.00040164 |   0.0 |  0.01
Modify  | 0.47198    | 0.47198    | 0.47198    |   0.0 | 14.15
Other   |            | 0.08469    |            |       |  2.54

Nlocal:            200 ave         200 max         200 min
Histogram: 1 0 0 0 0 0 0 0 0 0
Nghost:            394 ave         394 max         394 min
Histogram: 1 0 0 0 0 0 0 0 0 0
Neighs:           1204 ave        1204 max        1204 min
Histogram: 1 0 0 0 0 0 0 0 0 0

Total # of neighbors = 1204
Ave neighs/atom = 6.02
Neighbor list builds = 3786
Dangerous builds = 0
unfix       production
unfix       rdf_out
clear
next        index
jump        SELF loop_start
variable index loop         1 ${nsteps}
variable index loop         1 16
variable r_cut              equal floor((${initialCutOff}+(${index}-1)*${step})*100)/100 #manual rounding to second decimal place
variable r_cut              equal floor((1.12246204830937+(${index}-1)*${step})*100)/100 
variable r_cut              equal floor((1.12246204830937+(7-1)*${step})*100)/100 
variable r_cut              equal floor((1.12246204830937+(7-1)*0.2)*100)/100 

print "Simulation for r_cut = ${r_cut}"
Simulation for r_cut = 2.32

variable region_name string     simulation_box_${r_cut}
variable region_name string     simulation_box_2.32
region ${region_name} block     0.0 ${box_size} 0.0 ${box_size} 0.0 ${box_size}
region simulation_box_2.32 block     0.0 ${box_size} 0.0 ${box_size} 0.0 ${box_size}
region simulation_box_2.32 block     0.0 10 0.0 ${box_size} 0.0 ${box_size}
region simulation_box_2.32 block     0.0 10 0.0 10 0.0 ${box_size}
region simulation_box_2.32 block     0.0 10 0.0 10 0.0 10
create_box 1 ${region_name}
create_box 1 simulation_box_2.32
Created orthogonal box = (0 0 0) to (10 10 10)
  1 by 1 by 1 MPI processor grid
create_atoms                    1 random ${nParticles} 234567 NULL overlap 1.3
create_atoms                    1 random 200 234567 NULL overlap 1.3
Created 200 atoms
  using lattice units in orthogonal box = (0 0 0) to (10 10 10)
  create_atoms CPU = 0.002 seconds

mass        1 1.0
velocity    all create 1.0 87242 mom yes dist gaussian
pair_style  lj/cut ${r_cut}
pair_style  lj/cut 2.32
pair_coeff  1 1 1.0 1.0
pair_modify tail yes

neighbor     0.3 bin
neigh_modify delay 0 every 10 check yes

thermo_style custom step pe ke etotal temp press density
thermo       10000

print "Equilibration"
Equilibration

fix         equilibration all nve
timestep    0.001
run         50000
Generated 0 of 0 mixed pair_coeff terms from geometric mixing rule
Neighbor list info ...
  update: every = 10 steps, delay = 0 steps, check = yes
  max neighbors/atom: 2000, page size: 100000
  master list distance cutoff = 2.62
  ghost atom cutoff = 2.62
  binsize = 1.31, bins = 8 8 8
  1 neighbor lists, perpetual/occasional/extra = 1 0 0
  (1) pair lj/cut, perpetual
      attributes: half, newton on
      pair build: half/bin/atomonly/newton
      stencil: half/bin/3d
      bin: standard
Per MPI rank memory allocation (min/avg/max) = 3.07 | 3.07 | 3.07 Mbytes
   Step         PotEng         KinEng         TotEng          Temp          Press         Density    
         0  -0.87887012     1.4925         0.61362988     1             -0.12270508     0.2          
     10000  -1.4911262      2.0925775      0.60145135     1.402062       0.18328407     0.2          
     20000  -1.4427564      2.0468244      0.60406805     1.3714066      0.12199221     0.2          
     30000  -1.4635602      2.0669656      0.60340544     1.3849016      0.12000886     0.2          
     40000  -1.3430085      1.9475084      0.60449989     1.3048633      0.20342575     0.2          
     50000  -1.3874284      1.9790574      0.59162892     1.3260016      0.19974686     0.2          
Loop time of 1.31219 on 1 procs for 50000 steps with 200 atoms

Performance: 3292210.643 tau/day, 38104.290 timesteps/s, 7.621 Matom-step/s
100.0% CPU use with 1 MPI tasks x no OpenMP threads

MPI task timing breakdown:
Section |  min time  |  avg time  |  max time  |%varavg| %total
---------------------------------------------------------------
Pair    | 0.84941    | 0.84941    | 0.84941    |   0.0 | 64.73
Neigh   | 0.20496    | 0.20496    | 0.20496    |   0.0 | 15.62
Comm    | 0.12677    | 0.12677    | 0.12677    |   0.0 |  9.66
Output  | 0.00016231 | 0.00016231 | 0.00016231 |   0.0 |  0.01
Modify  | 0.096174   | 0.096174   | 0.096174   |   0.0 |  7.33
Other   |            | 0.03472    |            |       |  2.65

Nlocal:            200 ave         200 max         200 min
Histogram: 1 0 0 0 0 0 0 0 0 0
Nghost:            517 ave         517 max         517 min
Histogram: 1 0 0 0 0 0 0 0 0 0
Neighs:           1626 ave        1626 max        1626 min
Histogram: 1 0 0 0 0 0 0 0 0 0

Total # of neighbors = 1626
Ave neighs/atom = 8.13
Neighbor list builds = 1248
Dangerous builds = 0
unfix       equilibration

compute rdf_all all rdf 100  # 100 bins for g(r)
variable rdf_file string rdf_${r_cut}.dat
variable rdf_file string rdf_2.32.dat
fix rdf_out all ave/time 100 1 100 c_rdf_all[*] file ${rdf_file} mode vector
fix rdf_out all ave/time 100 1 100 c_rdf_all[*] file rdf_2.32.dat mode vector

print "Production"
Production

fix         production all nve
timestep    0.001
run         150000
Generated 0 of 0 mixed pair_coeff terms from geometric mixing rule
Neighbor list info ...
  update: every = 10 steps, delay = 0 steps, check = yes
  max neighbors/atom: 2000, page size: 100000
  master list distance cutoff = 2.62
  ghost atom cutoff = 2.62
  binsize = 1.31, bins = 8 8 8
  2 neighbor lists, perpetual/occasional/extra = 1 1 0
  (1) pair lj/cut, perpetual
      attributes: half, newton on
      pair build: half/bin/atomonly/newton
      stencil: half/bin/3d
      bin: standard
  (2) compute rdf, occasional, copy from (1)
      attributes: half, newton on
      pair build: copy
      stencil: none
      bin: none
Per MPI rank memory allocation (min/avg/max) = 3.46 | 3.46 | 3.46 Mbytes
   Step         PotEng         KinEng         TotEng          Temp          Press         Density    
     50000  -1.3874284      1.9790574      0.59162892     1.3260016      0.19974686     0.2          
     60000  -1.4767449      2.0772862      0.60054124     1.3918165      0.14980221     0.2          
     70000  -1.4311129      2.0302746      0.59916168     1.360318       0.16894276     0.2          
     80000  -1.4510351      2.0486444      0.59760928     1.3726261      0.15032584     0.2          
     90000  -1.481473       2.081743       0.60027        1.3948027      0.15972419     0.2          
    100000  -1.4997209      2.0971887      0.59746784     1.4051516      0.13784099     0.2          
    110000  -1.46611        2.0680493      0.60193931     1.3856277      0.11382896     0.2          
    120000  -1.5220382      2.1187404      0.59670228     1.4195916      0.20699145     0.2          
    130000  -1.4338214      2.0371903      0.60336892     1.3649517      0.13856958     0.2          
    140000  -1.4467015      2.0429098      0.59620829     1.3687838      0.14497618     0.2          
    150000  -1.4939302      2.0925557      0.59862547     1.4020474      0.15683553     0.2          
    160000  -1.4152307      2.0158889      0.60065823     1.3506793      0.1198448      0.2          
    170000  -1.424395       2.0237744      0.59937934     1.3559627      0.14390174     0.2          
    180000  -1.4629303      2.0666922      0.60376191     1.3847184      0.15686381     0.2          
    190000  -1.6205196      2.210106       0.5895864      1.480808       0.20493948     0.2          
    200000  -1.3604387      1.9618778      0.60143902     1.314491       0.14598722     0.2          
Loop time of 4.17527 on 1 procs for 150000 steps with 200 atoms

Performance: 3103990.643 tau/day, 35925.818 timesteps/s, 7.185 Matom-step/s
99.4% CPU use with 1 MPI tasks x no OpenMP threads

MPI task timing breakdown:
Section |  min time  |  avg time  |  max time  |%varavg| %total
---------------------------------------------------------------
Pair    | 2.5499     | 2.5499     | 2.5499     |   0.0 | 61.07
Neigh   | 0.62552    | 0.62552    | 0.62552    |   0.0 | 14.98
Comm    | 0.38682    | 0.38682    | 0.38682    |   0.0 |  9.26
Output  | 0.00040054 | 0.00040054 | 0.00040054 |   0.0 |  0.01
Modify  | 0.50633    | 0.50633    | 0.50633    |   0.0 | 12.13
Other   |            | 0.1063     |            |       |  2.55

Nlocal:            200 ave         200 max         200 min
Histogram: 1 0 0 0 0 0 0 0 0 0
Nghost:            516 ave         516 max         516 min
Histogram: 1 0 0 0 0 0 0 0 0 0
Neighs:           1511 ave        1511 max        1511 min
Histogram: 1 0 0 0 0 0 0 0 0 0

Total # of neighbors = 1511
Ave neighs/atom = 7.555
Neighbor list builds = 3803
Dangerous builds = 0
unfix       production
unfix       rdf_out
clear
next        index
jump        SELF loop_start
variable index loop         1 ${nsteps}
variable index loop         1 16
variable r_cut              equal floor((${initialCutOff}+(${index}-1)*${step})*100)/100 #manual rounding to second decimal place
variable r_cut              equal floor((1.12246204830937+(${index}-1)*${step})*100)/100 
variable r_cut              equal floor((1.12246204830937+(8-1)*${step})*100)/100 
variable r_cut              equal floor((1.12246204830937+(8-1)*0.2)*100)/100 

print "Simulation for r_cut = ${r_cut}"
Simulation for r_cut = 2.52

variable region_name string     simulation_box_${r_cut}
variable region_name string     simulation_box_2.52
region ${region_name} block     0.0 ${box_size} 0.0 ${box_size} 0.0 ${box_size}
region simulation_box_2.52 block     0.0 ${box_size} 0.0 ${box_size} 0.0 ${box_size}
region simulation_box_2.52 block     0.0 10 0.0 ${box_size} 0.0 ${box_size}
region simulation_box_2.52 block     0.0 10 0.0 10 0.0 ${box_size}
region simulation_box_2.52 block     0.0 10 0.0 10 0.0 10
create_box 1 ${region_name}
create_box 1 simulation_box_2.52
Created orthogonal box = (0 0 0) to (10 10 10)
  1 by 1 by 1 MPI processor grid
create_atoms                    1 random ${nParticles} 234567 NULL overlap 1.3
create_atoms                    1 random 200 234567 NULL overlap 1.3
Created 200 atoms
  using lattice units in orthogonal box = (0 0 0) to (10 10 10)
  create_atoms CPU = 0.002 seconds

mass        1 1.0
velocity    all create 1.0 87242 mom yes dist gaussian
pair_style  lj/cut ${r_cut}
pair_style  lj/cut 2.52
pair_coeff  1 1 1.0 1.0
pair_modify tail yes

neighbor     0.3 bin
neigh_modify delay 0 every 10 check yes

thermo_style custom step pe ke etotal temp press density
thermo       10000

print "Equilibration"
Equilibration

fix         equilibration all nve
timestep    0.001
run         50000
Generated 0 of 0 mixed pair_coeff terms from geometric mixing rule
Neighbor list info ...
  update: every = 10 steps, delay = 0 steps, check = yes
  max neighbors/atom: 2000, page size: 100000
  master list distance cutoff = 2.82
  ghost atom cutoff = 2.82
  binsize = 1.41, bins = 8 8 8
  1 neighbor lists, perpetual/occasional/extra = 1 0 0
  (1) pair lj/cut, perpetual
      attributes: half, newton on
      pair build: half/bin/atomonly/newton
      stencil: half/bin/3d
      bin: standard
Per MPI rank memory allocation (min/avg/max) = 3.07 | 3.07 | 3.07 Mbytes
   Step         PotEng         KinEng         TotEng          Temp          Press         Density    
         0  -0.87821939     1.4925         0.61428061     1             -0.12244552     0.2          
     10000  -1.5882317      2.187126       0.59889432     1.465411       0.15082378     0.2          
     20000  -1.5041075      2.1107928      0.6066853      1.4142666      0.10426841     0.2          
     30000  -1.4310935      2.0376898      0.60659621     1.3652863      0.1188753      0.2          
     40000  -1.3793613      1.9855064      0.60614517     1.3303226      0.21299877     0.2          
     50000  -1.4818674      2.0863957      0.60452827     1.39792        0.099413233    0.2          
Loop time of 1.62629 on 1 procs for 50000 steps with 200 atoms

Performance: 2656347.361 tau/day, 30744.761 timesteps/s, 6.149 Matom-step/s
100.0% CPU use with 1 MPI tasks x no OpenMP threads

MPI task timing breakdown:
Section |  min time  |  avg time  |  max time  |%varavg| %total
---------------------------------------------------------------
Pair    | 1.125      | 1.125      | 1.125      |   0.0 | 69.17
Neigh   | 0.22139    | 0.22139    | 0.22139    |   0.0 | 13.61
Comm    | 0.14471    | 0.14471    | 0.14471    |   0.0 |  8.90
Output  | 0.00013083 | 0.00013083 | 0.00013083 |   0.0 |  0.01
Modify  | 0.10224    | 0.10224    | 0.10224    |   0.0 |  6.29
Other   |            | 0.03286    |            |       |  2.02

Nlocal:            200 ave         200 max         200 min
Histogram: 1 0 0 0 0 0 0 0 0 0
Nghost:            609 ave         609 max         609 min
Histogram: 1 0 0 0 0 0 0 0 0 0
Neighs:           1908 ave        1908 max        1908 min
Histogram: 1 0 0 0 0 0 0 0 0 0

Total # of neighbors = 1908
Ave neighs/atom = 9.54
Neighbor list builds = 1264
Dangerous builds = 0
unfix       equilibration

compute rdf_all all rdf 100  # 100 bins for g(r)
variable rdf_file string rdf_${r_cut}.dat
variable rdf_file string rdf_2.52.dat
fix rdf_out all ave/time 100 1 100 c_rdf_all[*] file ${rdf_file} mode vector
fix rdf_out all ave/time 100 1 100 c_rdf_all[*] file rdf_2.52.dat mode vector

print "Production"
Production

fix         production all nve
timestep    0.001
run         150000
Generated 0 of 0 mixed pair_coeff terms from geometric mixing rule
Neighbor list info ...
  update: every = 10 steps, delay = 0 steps, check = yes
  max neighbors/atom: 2000, page size: 100000
  master list distance cutoff = 2.82
  ghost atom cutoff = 2.82
  binsize = 1.41, bins = 8 8 8
  2 neighbor lists, perpetual/occasional/extra = 1 1 0
  (1) pair lj/cut, perpetual
      attributes: half, newton on
      pair build: half/bin/atomonly/newton
      stencil: half/bin/3d
      bin: standard
  (2) compute rdf, occasional, copy from (1)
      attributes: half, newton on
      pair build: copy
      stencil: none
      bin: none
Per MPI rank memory allocation (min/avg/max) = 3.46 | 3.46 | 3.46 Mbytes
   Step         PotEng         KinEng         TotEng          Temp          Press         Density    
     50000  -1.4818674      2.0863957      0.60452827     1.39792        0.099413233    0.2          
     60000  -1.4775392      2.0808937      0.60335448     1.3942337      0.10361428     0.2          
     70000  -1.3860626      1.9889811      0.60291849     1.3326507      0.105219       0.2          
     80000  -1.4341326      2.0418553      0.6077227      1.3680773      0.16348206     0.2          
     90000  -1.4842793      2.0857564      0.60147718     1.3974918      0.12064011     0.2          
    100000  -1.5114367      2.1111483      0.59971162     1.4145048      0.18903261     0.2          
    110000  -1.4568903      2.0612542      0.60436383     1.3810748      0.17053423     0.2          
    120000  -1.4617799      2.0654896      0.60370969     1.3839127      0.12118377     0.2          
    130000  -1.4505428      2.056012       0.60546916     1.3775625      0.1481503      0.2          
    140000  -1.4329499      2.0384789      0.60552895     1.365815       0.14849614     0.2          
    150000  -1.4380309      2.0455144      0.60748347     1.3705289      0.090755324    0.2          
    160000  -1.4505779      2.0557424      0.60516447     1.3773818      0.1301056      0.2          
    170000  -1.4575891      2.0630647      0.60547559     1.3822879      0.1664834      0.2          
    180000  -1.3754503      1.9813178      0.60586749     1.3275161      0.12154797     0.2          
    190000  -1.5175841      2.11931        0.60172593     1.4199732      0.13097697     0.2          
    200000  -1.4541428      2.0601464      0.60600359     1.3803326      0.1479906      0.2          
Loop time of 5.04638 on 1 procs for 150000 steps with 200 atoms

Performance: 2568177.571 tau/day, 29724.277 timesteps/s, 5.945 Matom-step/s
99.4% CPU use with 1 MPI tasks x no OpenMP threads

MPI task timing breakdown:
Section |  min time  |  avg time  |  max time  |%varavg| %total
---------------------------------------------------------------
Pair    | 3.2962     | 3.2962     | 3.2962     |   0.0 | 65.32
Neigh   | 0.66328    | 0.66328    | 0.66328    |   0.0 | 13.14
Comm    | 0.44433    | 0.44433    | 0.44433    |   0.0 |  8.80
Output  | 0.00037588 | 0.00037588 | 0.00037588 |   0.0 |  0.01
Modify  | 0.5421     | 0.5421     | 0.5421     |   0.0 | 10.74
Other   |            | 0.1001     |            |       |  1.98

Nlocal:            200 ave         200 max         200 min
Histogram: 1 0 0 0 0 0 0 0 0 0
Nghost:            536 ave         536 max         536 min
Histogram: 1 0 0 0 0 0 0 0 0 0
Neighs:           1896 ave        1896 max        1896 min
Histogram: 1 0 0 0 0 0 0 0 0 0

Total # of neighbors = 1896
Ave neighs/atom = 9.48
Neighbor list builds = 3803
Dangerous builds = 0
unfix       production
unfix       rdf_out
clear
next        index
jump        SELF loop_start
variable index loop         1 ${nsteps}
variable index loop         1 16
variable r_cut              equal floor((${initialCutOff}+(${index}-1)*${step})*100)/100 #manual rounding to second decimal place
variable r_cut              equal floor((1.12246204830937+(${index}-1)*${step})*100)/100 
variable r_cut              equal floor((1.12246204830937+(9-1)*${step})*100)/100 
variable r_cut              equal floor((1.12246204830937+(9-1)*0.2)*100)/100 

print "Simulation for r_cut = ${r_cut}"
Simulation for r_cut = 2.72

variable region_name string     simulation_box_${r_cut}
variable region_name string     simulation_box_2.72
region ${region_name} block     0.0 ${box_size} 0.0 ${box_size} 0.0 ${box_size}
region simulation_box_2.72 block     0.0 ${box_size} 0.0 ${box_size} 0.0 ${box_size}
region simulation_box_2.72 block     0.0 10 0.0 ${box_size} 0.0 ${box_size}
region simulation_box_2.72 block     0.0 10 0.0 10 0.0 ${box_size}
region simulation_box_2.72 block     0.0 10 0.0 10 0.0 10
create_box 1 ${region_name}
create_box 1 simulation_box_2.72
Created orthogonal box = (0 0 0) to (10 10 10)
  1 by 1 by 1 MPI processor grid
create_atoms                    1 random ${nParticles} 234567 NULL overlap 1.3
create_atoms                    1 random 200 234567 NULL overlap 1.3
Created 200 atoms
  using lattice units in orthogonal box = (0 0 0) to (10 10 10)
  create_atoms CPU = 0.002 seconds

mass        1 1.0
velocity    all create 1.0 87242 mom yes dist gaussian
pair_style  lj/cut ${r_cut}
pair_style  lj/cut 2.72
pair_coeff  1 1 1.0 1.0
pair_modify tail yes

neighbor     0.3 bin
neigh_modify delay 0 every 10 check yes

thermo_style custom step pe ke etotal temp press density
thermo       10000

print "Equilibration"
Equilibration

fix         equilibration all nve
timestep    0.001
run         50000
Generated 0 of 0 mixed pair_coeff terms from geometric mixing rule
Neighbor list info ...
  update: every = 10 steps, delay = 0 steps, check = yes
  max neighbors/atom: 2000, page size: 100000
  master list distance cutoff = 3.02
  ghost atom cutoff = 3.02
  binsize = 1.51, bins = 7 7 7
  1 neighbor lists, perpetual/occasional/extra = 1 0 0
  (1) pair lj/cut, perpetual
      attributes: half, newton on
      pair build: half/bin/atomonly/newton
      stencil: half/bin/3d
      bin: standard
Per MPI rank memory allocation (min/avg/max) = 3.069 | 3.069 | 3.069 Mbytes
   Step         PotEng         KinEng         TotEng          Temp          Press         Density    
         0  -0.87840353     1.4925         0.61409647     1             -0.12251915     0.2          
     10000  -1.4590721      2.0670133      0.60794117     1.3849335      0.18810014     0.2          
     20000  -1.4438179      2.0527932      0.60897532     1.3754058      0.073699585    0.2          
     30000  -1.4589283      2.0637874      0.60485908     1.3827721      0.097075021    0.2          
     40000  -1.3888565      1.9943559      0.60549936     1.3362519      0.12702234     0.2          
     50000  -1.3744631      1.9840942      0.60963113     1.3293763      0.14602681     0.2          
Loop time of 1.92899 on 1 procs for 50000 steps with 200 atoms

Performance: 2239512.170 tau/day, 25920.280 timesteps/s, 5.184 Matom-step/s
100.0% CPU use with 1 MPI tasks x no OpenMP threads

MPI task timing breakdown:
Section |  min time  |  avg time  |  max time  |%varavg| %total
---------------------------------------------------------------
Pair    | 1.3714     | 1.3714     | 1.3714     |   0.0 | 71.09
Neigh   | 0.25995    | 0.25995    | 0.25995    |   0.0 | 13.48
Comm    | 0.15601    | 0.15601    | 0.15601    |   0.0 |  8.09
Output  | 0.00014053 | 0.00014053 | 0.00014053 |   0.0 |  0.01
Modify  | 0.10008    | 0.10008    | 0.10008    |   0.0 |  5.19
Other   |            | 0.04145    |            |       |  2.15

Nlocal:            200 ave         200 max         200 min
Histogram: 1 0 0 0 0 0 0 0 0 0
Nghost:            604 ave         604 max         604 min
Histogram: 1 0 0 0 0 0 0 0 0 0
Neighs:           2307 ave        2307 max        2307 min
Histogram: 1 0 0 0 0 0 0 0 0 0

Total # of neighbors = 2307
Ave neighs/atom = 11.535
Neighbor list builds = 1271
Dangerous builds = 0
unfix       equilibration

compute rdf_all all rdf 100  # 100 bins for g(r)
variable rdf_file string rdf_${r_cut}.dat
variable rdf_file string rdf_2.72.dat
fix rdf_out all ave/time 100 1 100 c_rdf_all[*] file ${rdf_file} mode vector
fix rdf_out all ave/time 100 1 100 c_rdf_all[*] file rdf_2.72.dat mode vector

print "Production"
Production

fix         production all nve
timestep    0.001
run         150000
Generated 0 of 0 mixed pair_coeff terms from geometric mixing rule
Neighbor list info ...
  update: every = 10 steps, delay = 0 steps, check = yes
  max neighbors/atom: 2000, page size: 100000
  master list distance cutoff = 3.02
  ghost atom cutoff = 3.02
  binsize = 1.51, bins = 7 7 7
  2 neighbor lists, perpetual/occasional/extra = 1 1 0
  (1) pair lj/cut, perpetual
      attributes: half, newton on
      pair build: half/bin/atomonly/newton
      stencil: half/bin/3d
      bin: standard
  (2) compute rdf, occasional, copy from (1)
      attributes: half, newton on
      pair build: copy
      stencil: none
      bin: none
Per MPI rank memory allocation (min/avg/max) = 3.458 | 3.458 | 3.458 Mbytes
   Step         PotEng         KinEng         TotEng          Temp          Press         Density    
     50000  -1.3744631      1.9840942      0.60963113     1.3293763      0.14602681     0.2          
     60000  -1.4136077      2.0229347      0.60932699     1.3554001      0.098527818    0.2          
     70000  -1.5325252      2.1389623      0.60643701     1.4331405      0.067833576    0.2          
     80000  -1.5678677      2.1718039      0.60393623     1.455145       0.13641993     0.2          
     90000  -1.4213195      2.0299996      0.60868007     1.3601337      0.15360885     0.2          
    100000  -1.4176495      2.0258334      0.60818392     1.3573423      0.14348848     0.2          
    110000  -1.4513374      2.0609226      0.60958526     1.3808527      0.13787831     0.2          
    120000  -1.4577687      2.0664121      0.60864341     1.3845307      0.056327711    0.2          
    130000  -1.4757124      2.0816579      0.60594544     1.3947456      0.064245982    0.2          
    140000  -1.4590916      2.0665196      0.60742797     1.3846027      0.11920178     0.2          
    150000  -1.5328845      2.1374439      0.60455937     1.4321232      0.14875263     0.2          
    160000  -1.5238653      2.1304891      0.60662378     1.4274634      0.11744706     0.2          
    170000  -1.5644665      2.168685       0.60421858     1.4530553      0.13885053     0.2          
    180000  -1.3849774      1.9947275      0.60975014     1.3365009      0.20801774     0.2          
    190000  -1.4726519      2.0832682      0.61061638     1.3958246      0.1627638      0.2          
    200000  -1.4268904      2.0367894      0.60989899     1.364683       0.042947077    0.2          
Loop time of 6.04557 on 1 procs for 150000 steps with 200 atoms

Performance: 2143717.892 tau/day, 24811.550 timesteps/s, 4.962 Matom-step/s
99.5% CPU use with 1 MPI tasks x no OpenMP threads

MPI task timing breakdown:
Section |  min time  |  avg time  |  max time  |%varavg| %total
---------------------------------------------------------------
Pair    | 4.1104     | 4.1104     | 4.1104     |   0.0 | 67.99
Neigh   | 0.78603    | 0.78603    | 0.78603    |   0.0 | 13.00
Comm    | 0.47011    | 0.47011    | 0.47011    |   0.0 |  7.78
Output  | 0.00043293 | 0.00043293 | 0.00043293 |   0.0 |  0.01
Modify  | 0.55473    | 0.55473    | 0.55473    |   0.0 |  9.18
Other   |            | 0.1239     |            |       |  2.05

Nlocal:            200 ave         200 max         200 min
Histogram: 1 0 0 0 0 0 0 0 0 0
Nghost:            615 ave         615 max         615 min
Histogram: 1 0 0 0 0 0 0 0 0 0
Neighs:           2355 ave        2355 max        2355 min
Histogram: 1 0 0 0 0 0 0 0 0 0

Total # of neighbors = 2355
Ave neighs/atom = 11.775
Neighbor list builds = 3834
Dangerous builds = 0
unfix       production
unfix       rdf_out
clear
next        index
jump        SELF loop_start
variable index loop         1 ${nsteps}
variable index loop         1 16
variable r_cut              equal floor((${initialCutOff}+(${index}-1)*${step})*100)/100 #manual rounding to second decimal place
variable r_cut              equal floor((1.12246204830937+(${index}-1)*${step})*100)/100 
variable r_cut              equal floor((1.12246204830937+(10-1)*${step})*100)/100 
variable r_cut              equal floor((1.12246204830937+(10-1)*0.2)*100)/100 

print "Simulation for r_cut = ${r_cut}"
Simulation for r_cut = 2.92

variable region_name string     simulation_box_${r_cut}
variable region_name string     simulation_box_2.92
region ${region_name} block     0.0 ${box_size} 0.0 ${box_size} 0.0 ${box_size}
region simulation_box_2.92 block     0.0 ${box_size} 0.0 ${box_size} 0.0 ${box_size}
region simulation_box_2.92 block     0.0 10 0.0 ${box_size} 0.0 ${box_size}
region simulation_box_2.92 block     0.0 10 0.0 10 0.0 ${box_size}
region simulation_box_2.92 block     0.0 10 0.0 10 0.0 10
create_box 1 ${region_name}
create_box 1 simulation_box_2.92
Created orthogonal box = (0 0 0) to (10 10 10)
  1 by 1 by 1 MPI processor grid
create_atoms                    1 random ${nParticles} 234567 NULL overlap 1.3
create_atoms                    1 random 200 234567 NULL overlap 1.3
Created 200 atoms
  using lattice units in orthogonal box = (0 0 0) to (10 10 10)
  create_atoms CPU = 0.002 seconds

mass        1 1.0
velocity    all create 1.0 87242 mom yes dist gaussian
pair_style  lj/cut ${r_cut}
pair_style  lj/cut 2.92
pair_coeff  1 1 1.0 1.0
pair_modify tail yes

neighbor     0.3 bin
neigh_modify delay 0 every 10 check yes

thermo_style custom step pe ke etotal temp press density
thermo       10000

print "Equilibration"
Equilibration

fix         equilibration all nve
timestep    0.001
run         50000
Generated 0 of 0 mixed pair_coeff terms from geometric mixing rule
Neighbor list info ...
  update: every = 10 steps, delay = 0 steps, check = yes
  max neighbors/atom: 2000, page size: 100000
  master list distance cutoff = 3.22
  ghost atom cutoff = 3.22
  binsize = 1.61, bins = 7 7 7
  1 neighbor lists, perpetual/occasional/extra = 1 0 0
  (1) pair lj/cut, perpetual
      attributes: half, newton on
      pair build: half/bin/atomonly/newton
      stencil: half/bin/3d
      bin: standard
Per MPI rank memory allocation (min/avg/max) = 3.078 | 3.078 | 3.078 Mbytes
   Step         PotEng         KinEng         TotEng          Temp          Press         Density    
         0  -0.87742936     1.4925         0.61507064     1             -0.12213037     0.2          
     10000  -1.5152389      2.1247629      0.60952402     1.4236267      0.21139545     0.2          
     20000  -1.469087       2.0795292      0.61044225     1.3933194      0.19604737     0.2          
     30000  -1.4806969      2.0919731      0.61127624     1.401657       0.1497991      0.2          
     40000  -1.535468       2.1428018      0.60733382     1.4357131      0.12434535     0.2          
     50000  -1.4872317      2.0981788      0.61094717     1.405815       0.11227932     0.2          
Loop time of 2.42026 on 1 procs for 50000 steps with 200 atoms

Performance: 1784930.433 tau/day, 20658.917 timesteps/s, 4.132 Matom-step/s
100.0% CPU use with 1 MPI tasks x no OpenMP threads

MPI task timing breakdown:
Section |  min time  |  avg time  |  max time  |%varavg| %total
---------------------------------------------------------------
Pair    | 1.7946     | 1.7946     | 1.7946     |   0.0 | 74.15
Neigh   | 0.29455    | 0.29455    | 0.29455    |   0.0 | 12.17
Comm    | 0.17862    | 0.17862    | 0.17862    |   0.0 |  7.38
Output  | 0.00017866 | 0.00017866 | 0.00017866 |   0.0 |  0.01
Modify  | 0.10795    | 0.10795    | 0.10795    |   0.0 |  4.46
Other   |            | 0.04432    |            |       |  1.83

Nlocal:            200 ave         200 max         200 min
Histogram: 1 0 0 0 0 0 0 0 0 0
Nghost:            704 ave         704 max         704 min
Histogram: 1 0 0 0 0 0 0 0 0 0
Neighs:           2851 ave        2851 max        2851 min
Histogram: 1 0 0 0 0 0 0 0 0 0

Total # of neighbors = 2851
Ave neighs/atom = 14.255
Neighbor list builds = 1302
Dangerous builds = 0
unfix       equilibration

compute rdf_all all rdf 100  # 100 bins for g(r)
variable rdf_file string rdf_${r_cut}.dat
variable rdf_file string rdf_2.92.dat
fix rdf_out all ave/time 100 1 100 c_rdf_all[*] file ${rdf_file} mode vector
fix rdf_out all ave/time 100 1 100 c_rdf_all[*] file rdf_2.92.dat mode vector

print "Production"
Production

fix         production all nve
timestep    0.001
run         150000
Generated 0 of 0 mixed pair_coeff terms from geometric mixing rule
Neighbor list info ...
  update: every = 10 steps, delay = 0 steps, check = yes
  max neighbors/atom: 2000, page size: 100000
  master list distance cutoff = 3.22
  ghost atom cutoff = 3.22
  binsize = 1.61, bins = 7 7 7
  2 neighbor lists, perpetual/occasional/extra = 1 1 0
  (1) pair lj/cut, perpetual
      attributes: half, newton on
      pair build: half/bin/atomonly/newton
      stencil: half/bin/3d
      bin: standard
  (2) compute rdf, occasional, copy from (1)
      attributes: half, newton on
      pair build: copy
      stencil: none
      bin: none
Per MPI rank memory allocation (min/avg/max) = 3.46 | 3.46 | 3.46 Mbytes
   Step         PotEng         KinEng         TotEng          Temp          Press         Density    
     50000  -1.4872317      2.0981788      0.61094717     1.405815       0.11227932     0.2          
     60000  -1.4239014      2.0350816      0.61118021     1.3635387      0.070994287    0.2          
     70000  -1.5360704      2.1432258      0.60715537     1.4359972      0.14300619     0.2          
     80000  -1.51584        2.1241112      0.60827125     1.4231901      0.17821534     0.2          
     90000  -1.3542362      1.9661311      0.61189498     1.3173408      0.10848371     0.2          
    100000  -1.486174       2.0962018      0.61002779     1.4044903      0.14352266     0.2          
    110000  -1.4583141      2.0672007      0.60888661     1.3850591      0.19075304     0.2          
    120000  -1.4642739      2.0700437      0.60576973     1.3869639      0.2969894      0.2          
    130000  -1.4966721      2.1077115      0.61103942     1.412202       0.060594269    0.2          
    140000  -1.562705       2.1695612      0.60685613     1.4536423      0.076552525    0.2          
    150000  -1.526091       2.1335598      0.60746882     1.4295208      0.14952947     0.2          
    160000  -1.5054798      2.1160432      0.61056342     1.4177844      0.090795738    0.2          
    170000  -1.3505615      1.9635321      0.61297067     1.3155994      0.12651176     0.2          
    180000  -1.3684335      1.9794016      0.61096805     1.3262322      0.1653166      0.2          
    190000  -1.5551737      2.1620098      0.60683609     1.4485828      0.16456682     0.2          
    200000  -1.466244       2.0766383      0.61039435     1.3913825      0.09970038     0.2          
Loop time of 7.12018 on 1 procs for 150000 steps with 200 atoms

Performance: 1820178.821 tau/day, 21066.884 timesteps/s, 4.213 Matom-step/s
99.6% CPU use with 1 MPI tasks x no OpenMP threads

MPI task timing breakdown:
Section |  min time  |  avg time  |  max time  |%varavg| %total
---------------------------------------------------------------
Pair    | 5.077      | 5.077      | 5.077      |   0.0 | 71.30
Neigh   | 0.83156    | 0.83156    | 0.83156    |   0.0 | 11.68
Comm    | 0.50715    | 0.50715    | 0.50715    |   0.0 |  7.12
Output  | 0.00036672 | 0.00036672 | 0.00036672 |   0.0 |  0.01
Modify  | 0.57599    | 0.57599    | 0.57599    |   0.0 |  8.09
Other   |            | 0.1281     |            |       |  1.80

Nlocal:            200 ave         200 max         200 min
Histogram: 1 0 0 0 0 0 0 0 0 0
Nghost:            694 ave         694 max         694 min
Histogram: 1 0 0 0 0 0 0 0 0 0
Neighs:           2827 ave        2827 max        2827 min
Histogram: 1 0 0 0 0 0 0 0 0 0

Total # of neighbors = 2827
Ave neighs/atom = 14.135
Neighbor list builds = 3796
Dangerous builds = 0
unfix       production
unfix       rdf_out
clear
next        index
jump        SELF loop_start
variable index loop         1 ${nsteps}
variable index loop         1 16
variable r_cut              equal floor((${initialCutOff}+(${index}-1)*${step})*100)/100 #manual rounding to second decimal place
variable r_cut              equal floor((1.12246204830937+(${index}-1)*${step})*100)/100 
variable r_cut              equal floor((1.12246204830937+(11-1)*${step})*100)/100 
variable r_cut              equal floor((1.12246204830937+(11-1)*0.2)*100)/100 

print "Simulation for r_cut = ${r_cut}"
Simulation for r_cut = 3.12

variable region_name string     simulation_box_${r_cut}
variable region_name string     simulation_box_3.12
region ${region_name} block     0.0 ${box_size} 0.0 ${box_size} 0.0 ${box_size}
region simulation_box_3.12 block     0.0 ${box_size} 0.0 ${box_size} 0.0 ${box_size}
region simulation_box_3.12 block     0.0 10 0.0 ${box_size} 0.0 ${box_size}
region simulation_box_3.12 block     0.0 10 0.0 10 0.0 ${box_size}
region simulation_box_3.12 block     0.0 10 0.0 10 0.0 10
create_box 1 ${region_name}
create_box 1 simulation_box_3.12
Created orthogonal box = (0 0 0) to (10 10 10)
  1 by 1 by 1 MPI processor grid
create_atoms                    1 random ${nParticles} 234567 NULL overlap 1.3
create_atoms                    1 random 200 234567 NULL overlap 1.3
Created 200 atoms
  using lattice units in orthogonal box = (0 0 0) to (10 10 10)
  create_atoms CPU = 0.002 seconds

mass        1 1.0
velocity    all create 1.0 87242 mom yes dist gaussian
pair_style  lj/cut ${r_cut}
pair_style  lj/cut 3.12
pair_coeff  1 1 1.0 1.0
pair_modify tail yes

neighbor     0.3 bin
neigh_modify delay 0 every 10 check yes

thermo_style custom step pe ke etotal temp press density
thermo       10000

print "Equilibration"
Equilibration

fix         equilibration all nve
timestep    0.001
run         50000
Generated 0 of 0 mixed pair_coeff terms from geometric mixing rule
Neighbor list info ...
  update: every = 10 steps, delay = 0 steps, check = yes
  max neighbors/atom: 2000, page size: 100000
  master list distance cutoff = 3.42
  ghost atom cutoff = 3.42
  binsize = 1.71, bins = 6 6 6
  1 neighbor lists, perpetual/occasional/extra = 1 0 0
  (1) pair lj/cut, perpetual
      attributes: half, newton on
      pair build: half/bin/atomonly/newton
      stencil: half/bin/3d
      bin: standard
Per MPI rank memory allocation (min/avg/max) = 3.08 | 3.08 | 3.08 Mbytes
   Step         PotEng         KinEng         TotEng          Temp          Press         Density    
         0  -0.87792125     1.4925         0.61457875     1             -0.12232685     0.2          
     10000  -1.4892402      2.1015551      0.61231491     1.4080771      0.16767194     0.2          
     20000  -1.5022084      2.1134712      0.61126272     1.4160611      0.078099728    0.2          
     30000  -1.4383733      2.0500906      0.61171736     1.3735951      0.22850423     0.2          
     40000  -1.5824121      2.1930158      0.61060373     1.4693573      0.13204788     0.2          
     50000  -1.4620305      2.0742008      0.61217032     1.3897493      0.12775706     0.2          
Loop time of 2.77165 on 1 procs for 50000 steps with 200 atoms

Performance: 1558640.966 tau/day, 18039.826 timesteps/s, 3.608 Matom-step/s
100.0% CPU use with 1 MPI tasks x no OpenMP threads

MPI task timing breakdown:
Section |  min time  |  avg time  |  max time  |%varavg| %total
---------------------------------------------------------------
Pair    | 2.1037     | 2.1037     | 2.1037     |   0.0 | 75.90
Neigh   | 0.32238    | 0.32238    | 0.32238    |   0.0 | 11.63
Comm    | 0.19628    | 0.19628    | 0.19628    |   0.0 |  7.08
Output  | 0.00013187 | 0.00013187 | 0.00013187 |   0.0 |  0.00
Modify  | 0.10179    | 0.10179    | 0.10179    |   0.0 |  3.67
Other   |            | 0.04739    |            |       |  1.71

Nlocal:            200 ave         200 max         200 min
Histogram: 1 0 0 0 0 0 0 0 0 0
Nghost:            825 ave         825 max         825 min
Histogram: 1 0 0 0 0 0 0 0 0 0
Neighs:           3373 ave        3373 max        3373 min
Histogram: 1 0 0 0 0 0 0 0 0 0

Total # of neighbors = 3373
Ave neighs/atom = 16.865
Neighbor list builds = 1258
Dangerous builds = 0
unfix       equilibration

compute rdf_all all rdf 100  # 100 bins for g(r)
variable rdf_file string rdf_${r_cut}.dat
variable rdf_file string rdf_3.12.dat
fix rdf_out all ave/time 100 1 100 c_rdf_all[*] file ${rdf_file} mode vector
fix rdf_out all ave/time 100 1 100 c_rdf_all[*] file rdf_3.12.dat mode vector

print "Production"
Production

fix         production all nve
timestep    0.001
run         150000
Generated 0 of 0 mixed pair_coeff terms from geometric mixing rule
Neighbor list info ...
  update: every = 10 steps, delay = 0 steps, check = yes
  max neighbors/atom: 2000, page size: 100000
  master list distance cutoff = 3.42
  ghost atom cutoff = 3.42
  binsize = 1.71, bins = 6 6 6
  2 neighbor lists, perpetual/occasional/extra = 1 1 0
  (1) pair lj/cut, perpetual
      attributes: half, newton on
      pair build: half/bin/atomonly/newton
      stencil: half/bin/3d
      bin: standard
  (2) compute rdf, occasional, copy from (1)
      attributes: half, newton on
      pair build: copy
      stencil: none
      bin: none
Per MPI rank memory allocation (min/avg/max) = 3.462 | 3.462 | 3.462 Mbytes
   Step         PotEng         KinEng         TotEng          Temp          Press         Density    
     50000  -1.4620305      2.0742008      0.61217032     1.3897493      0.12775706     0.2          
     60000  -1.4228296      2.0345261      0.61169659     1.3631666      0.16936496     0.2          
     70000  -1.476058       2.0875376      0.61147963     1.3986852      0.13576863     0.2          
     80000  -1.4408495      2.0516785      0.61082905     1.374659       0.11033749     0.2          
     90000  -1.4055594      2.0168624      0.61130306     1.3513316      0.15421045     0.2          
    100000  -1.4627298      2.0726987      0.60996891     1.3887428      0.21448484     0.2          
    110000  -1.4651497      2.0776864      0.6125367      1.3920847      0.12826724     0.2          
    120000  -1.5389229      2.1503228      0.61139991     1.4407523      0.12738413     0.2          
    130000  -1.4886348      2.0999008      0.611266       1.4069687      0.1396469      0.2          
    140000  -1.4499621      2.0610831      0.61112107     1.3809602      0.15846616     0.2          
    150000  -1.5498099      2.1588823      0.60907244     1.4464873      0.19524865     0.2          
    160000  -1.4086393      2.0207876      0.61214836     1.3539616      0.17974159     0.2          
    170000  -1.3957287      2.0071904      0.61146173     1.3448512      0.2658531      0.2          
    180000  -1.5298314      2.1411248      0.61129339     1.4345895      0.070936341    0.2          
    190000  -1.4476474      2.0592442      0.6115968      1.3797281      0.12332173     0.2          
    200000  -1.4690429      2.0824687      0.6134258      1.3952889      0.17758435     0.2          
Loop time of 8.52326 on 1 procs for 150000 steps with 200 atoms

Performance: 1520544.517 tau/day, 17598.895 timesteps/s, 3.520 Matom-step/s
99.6% CPU use with 1 MPI tasks x no OpenMP threads

MPI task timing breakdown:
Section |  min time  |  avg time  |  max time  |%varavg| %total
---------------------------------------------------------------
Pair    | 6.2402     | 6.2402     | 6.2402     |   0.0 | 73.21
Neigh   | 0.96781    | 0.96781    | 0.96781    |   0.0 | 11.35
Comm    | 0.58324    | 0.58324    | 0.58324    |   0.0 |  6.84
Output  | 0.00039785 | 0.00039785 | 0.00039785 |   0.0 |  0.00
Modify  | 0.5901     | 0.5901     | 0.5901     |   0.0 |  6.92
Other   |            | 0.1415     |            |       |  1.66

Nlocal:            200 ave         200 max         200 min
Histogram: 1 0 0 0 0 0 0 0 0 0
Nghost:            708 ave         708 max         708 min
Histogram: 1 0 0 0 0 0 0 0 0 0
Neighs:           3327 ave        3327 max        3327 min
Histogram: 1 0 0 0 0 0 0 0 0 0

Total # of neighbors = 3327
Ave neighs/atom = 16.635
Neighbor list builds = 3848
Dangerous builds = 0
unfix       production
unfix       rdf_out
clear
next        index
jump        SELF loop_start
variable index loop         1 ${nsteps}
variable index loop         1 16
variable r_cut              equal floor((${initialCutOff}+(${index}-1)*${step})*100)/100 #manual rounding to second decimal place
variable r_cut              equal floor((1.12246204830937+(${index}-1)*${step})*100)/100 
variable r_cut              equal floor((1.12246204830937+(12-1)*${step})*100)/100 
variable r_cut              equal floor((1.12246204830937+(12-1)*0.2)*100)/100 

print "Simulation for r_cut = ${r_cut}"
Simulation for r_cut = 3.32

variable region_name string     simulation_box_${r_cut}
variable region_name string     simulation_box_3.32
region ${region_name} block     0.0 ${box_size} 0.0 ${box_size} 0.0 ${box_size}
region simulation_box_3.32 block     0.0 ${box_size} 0.0 ${box_size} 0.0 ${box_size}
region simulation_box_3.32 block     0.0 10 0.0 ${box_size} 0.0 ${box_size}
region simulation_box_3.32 block     0.0 10 0.0 10 0.0 ${box_size}
region simulation_box_3.32 block     0.0 10 0.0 10 0.0 10
create_box 1 ${region_name}
create_box 1 simulation_box_3.32
Created orthogonal box = (0 0 0) to (10 10 10)
  1 by 1 by 1 MPI processor grid
create_atoms                    1 random ${nParticles} 234567 NULL overlap 1.3
create_atoms                    1 random 200 234567 NULL overlap 1.3
Created 200 atoms
  using lattice units in orthogonal box = (0 0 0) to (10 10 10)
  create_atoms CPU = 0.002 seconds

mass        1 1.0
velocity    all create 1.0 87242 mom yes dist gaussian
pair_style  lj/cut ${r_cut}
pair_style  lj/cut 3.32
pair_coeff  1 1 1.0 1.0
pair_modify tail yes

neighbor     0.3 bin
neigh_modify delay 0 every 10 check yes

thermo_style custom step pe ke etotal temp press density
thermo       10000

print "Equilibration"
Equilibration

fix         equilibration all nve
timestep    0.001
run         50000
Generated 0 of 0 mixed pair_coeff terms from geometric mixing rule
Neighbor list info ...
  update: every = 10 steps, delay = 0 steps, check = yes
  max neighbors/atom: 2000, page size: 100000
  master list distance cutoff = 3.62
  ghost atom cutoff = 3.62
  binsize = 1.81, bins = 6 6 6
  1 neighbor lists, perpetual/occasional/extra = 1 0 0
  (1) pair lj/cut, perpetual
      attributes: half, newton on
      pair build: half/bin/atomonly/newton
      stencil: half/bin/3d
      bin: standard
Per MPI rank memory allocation (min/avg/max) = 3.083 | 3.083 | 3.083 Mbytes
   Step         PotEng         KinEng         TotEng          Temp          Press         Density    
         0  -0.87766128     1.4925         0.61483872     1             -0.12222298     0.2          
     10000  -1.5339557      2.1448916      0.61093587     1.4371133      0.15135584     0.2          
     20000  -1.5340367      2.1453133      0.61127659     1.4373958      0.14273636     0.2          
     30000  -1.5769037      2.1887836      0.61187993     1.4665217      0.10136325     0.2          
     40000  -1.4631789      2.0763299      0.61315096     1.3911758      0.12863954     0.2          
     50000  -1.4960176      2.1087907      0.61277315     1.4129251      0.10843294     0.2          
Loop time of 3.36191 on 1 procs for 50000 steps with 200 atoms

Performance: 1284983.783 tau/day, 14872.497 timesteps/s, 2.974 Matom-step/s
99.8% CPU use with 1 MPI tasks x no OpenMP threads

MPI task timing breakdown:
Section |  min time  |  avg time  |  max time  |%varavg| %total
---------------------------------------------------------------
Pair    | 2.6254     | 2.6254     | 2.6254     |   0.0 | 78.09
Neigh   | 0.3563     | 0.3563     | 0.3563     |   0.0 | 10.60
Comm    | 0.21947    | 0.21947    | 0.21947    |   0.0 |  6.53
Output  | 0.00013878 | 0.00013878 | 0.00013878 |   0.0 |  0.00
Modify  | 0.10905    | 0.10905    | 0.10905    |   0.0 |  3.24
Other   |            | 0.05156    |            |       |  1.53

Nlocal:            200 ave         200 max         200 min
Histogram: 1 0 0 0 0 0 0 0 0 0
Nghost:            816 ave         816 max         816 min
Histogram: 1 0 0 0 0 0 0 0 0 0
Neighs:           4026 ave        4026 max        4026 min
Histogram: 1 0 0 0 0 0 0 0 0 0

Total # of neighbors = 4026
Ave neighs/atom = 20.13
Neighbor list builds = 1287
Dangerous builds = 0
unfix       equilibration

compute rdf_all all rdf 100  # 100 bins for g(r)
variable rdf_file string rdf_${r_cut}.dat
variable rdf_file string rdf_3.32.dat
fix rdf_out all ave/time 100 1 100 c_rdf_all[*] file ${rdf_file} mode vector
fix rdf_out all ave/time 100 1 100 c_rdf_all[*] file rdf_3.32.dat mode vector

print "Production"
Production

fix         production all nve
timestep    0.001
run         150000
Generated 0 of 0 mixed pair_coeff terms from geometric mixing rule
Neighbor list info ...
  update: every = 10 steps, delay = 0 steps, check = yes
  max neighbors/atom: 2000, page size: 100000
  master list distance cutoff = 3.62
  ghost atom cutoff = 3.62
  binsize = 1.81, bins = 6 6 6
  2 neighbor lists, perpetual/occasional/extra = 1 1 0
  (1) pair lj/cut, perpetual
      attributes: half, newton on
      pair build: half/bin/atomonly/newton
      stencil: half/bin/3d
      bin: standard
  (2) compute rdf, occasional, copy from (1)
      attributes: half, newton on
      pair build: copy
      stencil: none
      bin: none
Per MPI rank memory allocation (min/avg/max) = 3.464 | 3.464 | 3.464 Mbytes
   Step         PotEng         KinEng         TotEng          Temp          Press         Density    
     50000  -1.4960176      2.1087907      0.61277315     1.4129251      0.10843294     0.2          
     60000  -1.3712907      1.9854795      0.61418888     1.3303046      0.1423972      0.2          
     70000  -1.5007634      2.113352       0.61258863     1.4159813      0.14819115     0.2          
     80000  -1.513851       2.1258013      0.61195027     1.4243225      0.1629714      0.2          
     90000  -1.4444198      2.0563133      0.61189347     1.3777644      0.12104674     0.2          
    100000  -1.4385179      2.0517319      0.61321405     1.3746948      0.088076004    0.2          
    110000  -1.37804        1.9910999      0.61305985     1.3340703      0.029243457    0.2          
    120000  -1.4630018      2.0738168      0.61081498     1.389492       0.17911981     0.2          
    130000  -1.5083745      2.1211497      0.61277521     1.4212058      0.17795765     0.2          
    140000  -1.5306094      2.1407815      0.61017216     1.4343595      0.30211568     0.2          
    150000  -1.3658285      1.9789189      0.61309038     1.3259088      0.12307677     0.2          
    160000  -1.4697688      2.0821114      0.6123426      1.3950495      0.13444736     0.2          
    170000  -1.4160687      2.028954       0.61288527     1.3594332      0.13227708     0.2          
    180000  -1.3850749      1.9989192      0.61384429     1.3393094      0.16530275     0.2          
    190000  -1.4686116      2.0807791      0.61216753     1.3941568      0.1275272      0.2          
    200000  -1.4360451      2.0480595      0.61201442     1.3722342      0.13630713     0.2          
Loop time of 10.4796 on 1 procs for 150000 steps with 200 atoms

Performance: 1236693.816 tau/day, 14313.586 timesteps/s, 2.863 Matom-step/s
99.7% CPU use with 1 MPI tasks x no OpenMP threads

MPI task timing breakdown:
Section |  min time  |  avg time  |  max time  |%varavg| %total
---------------------------------------------------------------
Pair    | 7.9388     | 7.9388     | 7.9388     |   0.0 | 75.75
Neigh   | 1.066      | 1.066      | 1.066      |   0.0 | 10.17
Comm    | 0.65681    | 0.65681    | 0.65681    |   0.0 |  6.27
Output  | 0.00037164 | 0.00037164 | 0.00037164 |   0.0 |  0.00
Modify  | 0.66136    | 0.66136    | 0.66136    |   0.0 |  6.31
Other   |            | 0.1563     |            |       |  1.49

Nlocal:            200 ave         200 max         200 min
Histogram: 1 0 0 0 0 0 0 0 0 0
Nghost:            848 ave         848 max         848 min
Histogram: 1 0 0 0 0 0 0 0 0 0
Neighs:           4036 ave        4036 max        4036 min
Histogram: 1 0 0 0 0 0 0 0 0 0

Total # of neighbors = 4036
Ave neighs/atom = 20.18
Neighbor list builds = 3829
Dangerous builds = 0
unfix       production
unfix       rdf_out
clear
next        index
jump        SELF loop_start
variable index loop         1 ${nsteps}
variable index loop         1 16
variable r_cut              equal floor((${initialCutOff}+(${index}-1)*${step})*100)/100 #manual rounding to second decimal place
variable r_cut              equal floor((1.12246204830937+(${index}-1)*${step})*100)/100 
variable r_cut              equal floor((1.12246204830937+(13-1)*${step})*100)/100 
variable r_cut              equal floor((1.12246204830937+(13-1)*0.2)*100)/100 

print "Simulation for r_cut = ${r_cut}"
Simulation for r_cut = 3.52

variable region_name string     simulation_box_${r_cut}
variable region_name string     simulation_box_3.52
region ${region_name} block     0.0 ${box_size} 0.0 ${box_size} 0.0 ${box_size}
region simulation_box_3.52 block     0.0 ${box_size} 0.0 ${box_size} 0.0 ${box_size}
region simulation_box_3.52 block     0.0 10 0.0 ${box_size} 0.0 ${box_size}
region simulation_box_3.52 block     0.0 10 0.0 10 0.0 ${box_size}
region simulation_box_3.52 block     0.0 10 0.0 10 0.0 10
create_box 1 ${region_name}
create_box 1 simulation_box_3.52
Created orthogonal box = (0 0 0) to (10 10 10)
  1 by 1 by 1 MPI processor grid
create_atoms                    1 random ${nParticles} 234567 NULL overlap 1.3
create_atoms                    1 random 200 234567 NULL overlap 1.3
Created 200 atoms
  using lattice units in orthogonal box = (0 0 0) to (10 10 10)
  create_atoms CPU = 0.002 seconds

mass        1 1.0
velocity    all create 1.0 87242 mom yes dist gaussian
pair_style  lj/cut ${r_cut}
pair_style  lj/cut 3.52
pair_coeff  1 1 1.0 1.0
pair_modify tail yes

neighbor     0.3 bin
neigh_modify delay 0 every 10 check yes

thermo_style custom step pe ke etotal temp press density
thermo       10000

print "Equilibration"
Equilibration

fix         equilibration all nve
timestep    0.001
run         50000
Generated 0 of 0 mixed pair_coeff terms from geometric mixing rule
Neighbor list info ...
  update: every = 10 steps, delay = 0 steps, check = yes
  max neighbors/atom: 2000, page size: 100000
  master list distance cutoff = 3.82
  ghost atom cutoff = 3.82
  binsize = 1.91, bins = 6 6 6
  1 neighbor lists, perpetual/occasional/extra = 1 0 0
  (1) pair lj/cut, perpetual
      attributes: half, newton on
      pair build: half/bin/atomonly/newton
      stencil: half/bin/3d
      bin: standard
Per MPI rank memory allocation (min/avg/max) = 3.086 | 3.086 | 3.086 Mbytes
   Step         PotEng         KinEng         TotEng          Temp          Press         Density    
         0  -0.87781776     1.4925         0.61468224     1             -0.12228551     0.2          
     10000  -1.4276922      2.0423253      0.61463312     1.3683922      0.085558805    0.2          
     20000  -1.4560737      2.069614       0.61354037     1.3866761      0.12266033     0.2          
     30000  -1.4028275      2.0168019      0.61397444     1.3512911      0.21485744     0.2          
     40000  -1.4716685      2.0837656      0.61209716     1.3961579      0.13936563     0.2          
     50000  -1.5216394      2.1338237      0.61218424     1.4296976      0.1584962      0.2          
Loop time of 3.86017 on 1 procs for 50000 steps with 200 atoms

Performance: 1119122.669 tau/day, 12952.809 timesteps/s, 2.591 Matom-step/s
100.0% CPU use with 1 MPI tasks x no OpenMP threads

MPI task timing breakdown:
Section |  min time  |  avg time  |  max time  |%varavg| %total
---------------------------------------------------------------
Pair    | 3.0955     | 3.0955     | 3.0955     |   0.0 | 80.19
Neigh   | 0.37071    | 0.37071    | 0.37071    |   0.0 |  9.60
Comm    | 0.23563    | 0.23563    | 0.23563    |   0.0 |  6.10
Output  | 0.00014429 | 0.00014429 | 0.00014429 |   0.0 |  0.00
Modify  | 0.11308    | 0.11308    | 0.11308    |   0.0 |  2.93
Other   |            | 0.04508    |            |       |  1.17

Nlocal:            200 ave         200 max         200 min
Histogram: 1 0 0 0 0 0 0 0 0 0
Nghost:            884 ave         884 max         884 min
Histogram: 1 0 0 0 0 0 0 0 0 0
Neighs:           4836 ave        4836 max        4836 min
Histogram: 1 0 0 0 0 0 0 0 0 0

Total # of neighbors = 4836
Ave neighs/atom = 24.18
Neighbor list builds = 1293
Dangerous builds = 0
unfix       equilibration

compute rdf_all all rdf 100  # 100 bins for g(r)
variable rdf_file string rdf_${r_cut}.dat
variable rdf_file string rdf_3.52.dat
fix rdf_out all ave/time 100 1 100 c_rdf_all[*] file ${rdf_file} mode vector
fix rdf_out all ave/time 100 1 100 c_rdf_all[*] file rdf_3.52.dat mode vector

print "Production"
Production

fix         production all nve
timestep    0.001
run         150000
Generated 0 of 0 mixed pair_coeff terms from geometric mixing rule
Neighbor list info ...
  update: every = 10 steps, delay = 0 steps, check = yes
  max neighbors/atom: 2000, page size: 100000
  master list distance cutoff = 3.82
  ghost atom cutoff = 3.82
  binsize = 1.91, bins = 6 6 6
  2 neighbor lists, perpetual/occasional/extra = 1 1 0
  (1) pair lj/cut, perpetual
      attributes: half, newton on
      pair build: half/bin/atomonly/newton
      stencil: half/bin/3d
      bin: standard
  (2) compute rdf, occasional, copy from (1)
      attributes: half, newton on
      pair build: copy
      stencil: none
      bin: none
Per MPI rank memory allocation (min/avg/max) = 3.468 | 3.468 | 3.468 Mbytes
   Step         PotEng         KinEng         TotEng          Temp          Press         Density    
     50000  -1.5216394      2.1338237      0.61218424     1.4296976      0.1584962      0.2          
     60000  -1.461843       2.0760204      0.61417734     1.3909684      0.087309177    0.2          
     70000  -1.4455834      2.0591077      0.61352428     1.3796366      0.11944945     0.2          
     80000  -1.4374829      2.0515979      0.61411505     1.374605       0.12567379     0.2          
     90000  -1.5347549      2.1476306      0.61287572     1.4389485      0.16139269     0.2          
    100000  -1.3632374      1.9773303      0.61409284     1.3248444      0.18447504     0.2          
    110000  -1.3839984      1.9981347      0.61413627     1.3387837      0.2083799      0.2          
    120000  -1.4877545      2.1002749      0.61252038     1.4072194      0.13730949     0.2          
    130000  -1.4972864      2.1105749      0.61328848     1.4141205      0.1255432      0.2          
    140000  -1.3988672      2.011249       0.6123818      1.3475705      0.090348324    0.2          
    150000  -1.396421       2.0102491      0.61382808     1.3469006      0.18253048     0.2          
    160000  -1.5821613      2.1942345      0.61207327     1.4701739      0.13247748     0.2          
    170000  -1.4780655      2.0905181      0.61245254     1.4006821      0.14774173     0.2          
    180000  -1.4048406      2.0186046      0.61376395     1.3524989      0.13915407     0.2          
    190000  -1.5351183      2.1473009      0.61218268     1.4387276      0.15251944     0.2          
    200000  -1.3898927      2.0043698      0.61447716     1.3429614      0.11791765     0.2          
Loop time of 12.0911 on 1 procs for 150000 steps with 200 atoms

Performance: 1071866.289 tau/day, 12405.860 timesteps/s, 2.481 Matom-step/s
99.7% CPU use with 1 MPI tasks x no OpenMP threads

MPI task timing breakdown:
Section |  min time  |  avg time  |  max time  |%varavg| %total
---------------------------------------------------------------
Pair    | 9.4357     | 9.4357     | 9.4357     |   0.0 | 78.04
Neigh   | 1.1038     | 1.1038     | 1.1038     |   0.0 |  9.13
Comm    | 0.71507    | 0.71507    | 0.71507    |   0.0 |  5.91
Output  | 0.00043378 | 0.00043378 | 0.00043378 |   0.0 |  0.00
Modify  | 0.69836    | 0.69836    | 0.69836    |   0.0 |  5.78
Other   |            | 0.1378     |            |       |  1.14

Nlocal:            200 ave         200 max         200 min
Histogram: 1 0 0 0 0 0 0 0 0 0
Nghost:            890 ave         890 max         890 min
Histogram: 1 0 0 0 0 0 0 0 0 0
Neighs:           4537 ave        4537 max        4537 min
Histogram: 1 0 0 0 0 0 0 0 0 0

Total # of neighbors = 4537
Ave neighs/atom = 22.685
Neighbor list builds = 3813
Dangerous builds = 0
unfix       production
unfix       rdf_out
clear
next        index
jump        SELF loop_start
variable index loop         1 ${nsteps}
variable index loop         1 16
variable r_cut              equal floor((${initialCutOff}+(${index}-1)*${step})*100)/100 #manual rounding to second decimal place
variable r_cut              equal floor((1.12246204830937+(${index}-1)*${step})*100)/100 
variable r_cut              equal floor((1.12246204830937+(14-1)*${step})*100)/100 
variable r_cut              equal floor((1.12246204830937+(14-1)*0.2)*100)/100 

print "Simulation for r_cut = ${r_cut}"
Simulation for r_cut = 3.72

variable region_name string     simulation_box_${r_cut}
variable region_name string     simulation_box_3.72
region ${region_name} block     0.0 ${box_size} 0.0 ${box_size} 0.0 ${box_size}
region simulation_box_3.72 block     0.0 ${box_size} 0.0 ${box_size} 0.0 ${box_size}
region simulation_box_3.72 block     0.0 10 0.0 ${box_size} 0.0 ${box_size}
region simulation_box_3.72 block     0.0 10 0.0 10 0.0 ${box_size}
region simulation_box_3.72 block     0.0 10 0.0 10 0.0 10
create_box 1 ${region_name}
create_box 1 simulation_box_3.72
Created orthogonal box = (0 0 0) to (10 10 10)
  1 by 1 by 1 MPI processor grid
create_atoms                    1 random ${nParticles} 234567 NULL overlap 1.3
create_atoms                    1 random 200 234567 NULL overlap 1.3
Created 200 atoms
  using lattice units in orthogonal box = (0 0 0) to (10 10 10)
  create_atoms CPU = 0.002 seconds

mass        1 1.0
velocity    all create 1.0 87242 mom yes dist gaussian
pair_style  lj/cut ${r_cut}
pair_style  lj/cut 3.72
pair_coeff  1 1 1.0 1.0
pair_modify tail yes

neighbor     0.3 bin
neigh_modify delay 0 every 10 check yes

thermo_style custom step pe ke etotal temp press density
thermo       10000

print "Equilibration"
Equilibration

fix         equilibration all nve
timestep    0.001
run         50000
Generated 0 of 0 mixed pair_coeff terms from geometric mixing rule
Neighbor list info ...
  update: every = 10 steps, delay = 0 steps, check = yes
  max neighbors/atom: 2000, page size: 100000
  master list distance cutoff = 4.02
  ghost atom cutoff = 4.02
  binsize = 2.01, bins = 5 5 5
  1 neighbor lists, perpetual/occasional/extra = 1 0 0
  (1) pair lj/cut, perpetual
      attributes: half, newton on
      pair build: half/bin/atomonly/newton
      stencil: half/bin/3d
      bin: standard
Per MPI rank memory allocation (min/avg/max) = 3.091 | 3.091 | 3.091 Mbytes
   Step         PotEng         KinEng         TotEng          Temp          Press         Density    
         0  -0.877834       1.4925         0.614666       1             -0.122292       0.2          
     10000  -1.6524815      2.2651912      0.61270973     1.517716       0.19223484     0.2          
     20000  -1.3662955      1.9794509      0.61315537     1.3262652      0.13073812     0.2          
     30000  -1.4668542      2.0798783      0.61302407     1.3935533      0.10017293     0.2          
     40000  -1.5146938      2.1274167      0.61272282     1.4254048      0.16051034     0.2          
     50000  -1.5410767      2.1528819      0.61180518     1.4424669      0.20189916     0.2          
Loop time of 4.52953 on 1 procs for 50000 steps with 200 atoms

Performance: 953741.090 tau/day, 11038.670 timesteps/s, 2.208 Matom-step/s
100.0% CPU use with 1 MPI tasks x no OpenMP threads

MPI task timing breakdown:
Section |  min time  |  avg time  |  max time  |%varavg| %total
---------------------------------------------------------------
Pair    | 3.6839     | 3.6839     | 3.6839     |   0.0 | 81.33
Neigh   | 0.4221     | 0.4221     | 0.4221     |   0.0 |  9.32
Comm    | 0.26363    | 0.26363    | 0.26363    |   0.0 |  5.82
Output  | 0.00014663 | 0.00014663 | 0.00014663 |   0.0 |  0.00
Modify  | 0.1115     | 0.1115     | 0.1115     |   0.0 |  2.46
Other   |            | 0.04822    |            |       |  1.06

Nlocal:            200 ave         200 max         200 min
Histogram: 1 0 0 0 0 0 0 0 0 0
Nghost:            960 ave         960 max         960 min
Histogram: 1 0 0 0 0 0 0 0 0 0
Neighs:           5811 ave        5811 max        5811 min
Histogram: 1 0 0 0 0 0 0 0 0 0

Total # of neighbors = 5811
Ave neighs/atom = 29.055
Neighbor list builds = 1264
Dangerous builds = 0
unfix       equilibration

compute rdf_all all rdf 100  # 100 bins for g(r)
variable rdf_file string rdf_${r_cut}.dat
variable rdf_file string rdf_3.72.dat
fix rdf_out all ave/time 100 1 100 c_rdf_all[*] file ${rdf_file} mode vector
fix rdf_out all ave/time 100 1 100 c_rdf_all[*] file rdf_3.72.dat mode vector

print "Production"
Production

fix         production all nve
timestep    0.001
run         150000
Generated 0 of 0 mixed pair_coeff terms from geometric mixing rule
Neighbor list info ...
  update: every = 10 steps, delay = 0 steps, check = yes
  max neighbors/atom: 2000, page size: 100000
  master list distance cutoff = 4.02
  ghost atom cutoff = 4.02
  binsize = 2.01, bins = 5 5 5
  2 neighbor lists, perpetual/occasional/extra = 1 1 0
  (1) pair lj/cut, perpetual
      attributes: half, newton on
      pair build: half/bin/atomonly/newton
      stencil: half/bin/3d
      bin: standard
  (2) compute rdf, occasional, copy from (1)
      attributes: half, newton on
      pair build: copy
      stencil: none
      bin: none
Per MPI rank memory allocation (min/avg/max) = 3.473 | 3.473 | 3.473 Mbytes
   Step         PotEng         KinEng         TotEng          Temp          Press         Density    
     50000  -1.5410767      2.1528819      0.61180518     1.4424669      0.20189916     0.2          
     60000  -1.4692948      2.0818093      0.61251445     1.3948471      0.19431622     0.2          
     70000  -1.5166128      2.1298         0.61318717     1.4270017      0.23749538     0.2          
     80000  -1.4635481      2.0773428      0.6137947      1.3918545      0.14570696     0.2          
     90000  -1.4537852      2.0666526      0.61286738     1.3846919      0.18365334     0.2          
    100000  -1.4254371      2.0397009      0.61426374     1.3666337      0.16279175     0.2          
    110000  -1.483549       2.0969303      0.61338137     1.4049784      0.086153153    0.2          
    120000  -1.5278865      2.1413934      0.6135069      1.4347695      0.11746832     0.2          
    130000  -1.4605968      2.074845       0.61424822     1.3901809      0.096357569    0.2          
    140000  -1.5642958      2.1773697      0.6130739      1.4588742      0.23979985     0.2          
    150000  -1.5136615      2.1274299      0.61376836     1.4254136      0.035025198    0.2          
    160000  -1.4101263      2.0236855      0.61355927     1.3559032      0.20473687     0.2          
    170000  -1.5096272      2.1224993      0.61287207     1.4221101      0.12939826     0.2          
    180000  -1.4526871      2.0655765      0.61288941     1.3839708      0.16123452     0.2          
    190000  -1.5095524      2.1232664      0.61371402     1.422624       0.15361763     0.2          
    200000  -1.5268558      2.1398855      0.6130297      1.4337591      0.14031085     0.2          
Loop time of 14.2488 on 1 procs for 150000 steps with 200 atoms

Performance: 909547.352 tau/day, 10527.168 timesteps/s, 2.105 Matom-step/s
99.7% CPU use with 1 MPI tasks x no OpenMP threads

MPI task timing breakdown:
Section |  min time  |  avg time  |  max time  |%varavg| %total
---------------------------------------------------------------
Pair    | 11.257     | 11.257     | 11.257     |   0.0 | 79.00
Neigh   | 1.3034     | 1.3034     | 1.3034     |   0.0 |  9.15
Comm    | 0.81015    | 0.81015    | 0.81015    |   0.0 |  5.69
Output  | 0.00040231 | 0.00040231 | 0.00040231 |   0.0 |  0.00
Modify  | 0.72728    | 0.72728    | 0.72728    |   0.0 |  5.10
Other   |            | 0.1509     |            |       |  1.06

Nlocal:            200 ave         200 max         200 min
Histogram: 1 0 0 0 0 0 0 0 0 0
Nghost:            987 ave         987 max         987 min
Histogram: 1 0 0 0 0 0 0 0 0 0
Neighs:           5551 ave        5551 max        5551 min
Histogram: 1 0 0 0 0 0 0 0 0 0

Total # of neighbors = 5551
Ave neighs/atom = 27.755
Neighbor list builds = 3827
Dangerous builds = 0
unfix       production
unfix       rdf_out
clear
next        index
jump        SELF loop_start
variable index loop         1 ${nsteps}
variable index loop         1 16
variable r_cut              equal floor((${initialCutOff}+(${index}-1)*${step})*100)/100 #manual rounding to second decimal place
variable r_cut              equal floor((1.12246204830937+(${index}-1)*${step})*100)/100 
variable r_cut              equal floor((1.12246204830937+(15-1)*${step})*100)/100 
variable r_cut              equal floor((1.12246204830937+(15-1)*0.2)*100)/100 

print "Simulation for r_cut = ${r_cut}"
Simulation for r_cut = 3.92

variable region_name string     simulation_box_${r_cut}
variable region_name string     simulation_box_3.92
region ${region_name} block     0.0 ${box_size} 0.0 ${box_size} 0.0 ${box_size}
region simulation_box_3.92 block     0.0 ${box_size} 0.0 ${box_size} 0.0 ${box_size}
region simulation_box_3.92 block     0.0 10 0.0 ${box_size} 0.0 ${box_size}
region simulation_box_3.92 block     0.0 10 0.0 10 0.0 ${box_size}
region simulation_box_3.92 block     0.0 10 0.0 10 0.0 10
create_box 1 ${region_name}
create_box 1 simulation_box_3.92
Created orthogonal box = (0 0 0) to (10 10 10)
  1 by 1 by 1 MPI processor grid
create_atoms                    1 random ${nParticles} 234567 NULL overlap 1.3
create_atoms                    1 random 200 234567 NULL overlap 1.3
Created 200 atoms
  using lattice units in orthogonal box = (0 0 0) to (10 10 10)
  create_atoms CPU = 0.002 seconds

mass        1 1.0
velocity    all create 1.0 87242 mom yes dist gaussian
pair_style  lj/cut ${r_cut}
pair_style  lj/cut 3.92
pair_coeff  1 1 1.0 1.0
pair_modify tail yes

neighbor     0.3 bin
neigh_modify delay 0 every 10 check yes

thermo_style custom step pe ke etotal temp press density
thermo       10000

print "Equilibration"
Equilibration

fix         equilibration all nve
timestep    0.001
run         50000
Generated 0 of 0 mixed pair_coeff terms from geometric mixing rule
Neighbor list info ...
  update: every = 10 steps, delay = 0 steps, check = yes
  max neighbors/atom: 2000, page size: 100000
  master list distance cutoff = 4.22
  ghost atom cutoff = 4.22
  binsize = 2.11, bins = 5 5 5
  1 neighbor lists, perpetual/occasional/extra = 1 0 0
  (1) pair lj/cut, perpetual
      attributes: half, newton on
      pair build: half/bin/atomonly/newton
      stencil: half/bin/3d
      bin: standard
Per MPI rank memory allocation (min/avg/max) = 3.095 | 3.095 | 3.095 Mbytes
   Step         PotEng         KinEng         TotEng          Temp          Press         Density    
         0  -0.87774047     1.4925         0.61475953     1             -0.1222546      0.2          
     10000  -1.5403578      2.1540398      0.61368201     1.4432428      0.18769374     0.2          
     20000  -1.463354       2.0772803      0.61392632     1.3918126      0.072850693    0.2          
     30000  -1.4673103      2.0810001      0.61368983     1.3943049      0.099698838    0.2          
     40000  -1.4507812      2.0646131      0.61383192     1.3833254      0.20688638     0.2          
     50000  -1.5134787      2.1267478      0.61326907     1.4249566      0.15004767     0.2          
Loop time of 5.29413 on 1 procs for 50000 steps with 200 atoms

Performance: 815998.496 tau/day, 9444.427 timesteps/s, 1.889 Matom-step/s
99.9% CPU use with 1 MPI tasks x no OpenMP threads

MPI task timing breakdown:
Section |  min time  |  avg time  |  max time  |%varavg| %total
---------------------------------------------------------------
Pair    | 4.3785     | 4.3785     | 4.3785     |   0.0 | 82.70
Neigh   | 0.45019    | 0.45019    | 0.45019    |   0.0 |  8.50
Comm    | 0.29504    | 0.29504    | 0.29504    |   0.0 |  5.57
Output  | 0.00015428 | 0.00015428 | 0.00015428 |   0.0 |  0.00
Modify  | 0.11898    | 0.11898    | 0.11898    |   0.0 |  2.25
Other   |            | 0.05129    |            |       |  0.97

Nlocal:            200 ave         200 max         200 min
Histogram: 1 0 0 0 0 0 0 0 0 0
Nghost:           1025 ave        1025 max        1025 min
Histogram: 1 0 0 0 0 0 0 0 0 0
Neighs:           6474 ave        6474 max        6474 min
Histogram: 1 0 0 0 0 0 0 0 0 0

Total # of neighbors = 6474
Ave neighs/atom = 32.37
Neighbor list builds = 1272
Dangerous builds = 0
unfix       equilibration

compute rdf_all all rdf 100  # 100 bins for g(r)
variable rdf_file string rdf_${r_cut}.dat
variable rdf_file string rdf_3.92.dat
fix rdf_out all ave/time 100 1 100 c_rdf_all[*] file ${rdf_file} mode vector
fix rdf_out all ave/time 100 1 100 c_rdf_all[*] file rdf_3.92.dat mode vector

print "Production"
Production

fix         production all nve
timestep    0.001
run         150000
Generated 0 of 0 mixed pair_coeff terms from geometric mixing rule
Neighbor list info ...
  update: every = 10 steps, delay = 0 steps, check = yes
  max neighbors/atom: 2000, page size: 100000
  master list distance cutoff = 4.22
  ghost atom cutoff = 4.22
  binsize = 2.11, bins = 5 5 5
  2 neighbor lists, perpetual/occasional/extra = 1 1 0
  (1) pair lj/cut, perpetual
      attributes: half, newton on
      pair build: half/bin/atomonly/newton
      stencil: half/bin/3d
      bin: standard
  (2) compute rdf, occasional, copy from (1)
      attributes: half, newton on
      pair build: copy
      stencil: none
      bin: none
Per MPI rank memory allocation (min/avg/max) = 3.476 | 3.476 | 3.476 Mbytes
   Step         PotEng         KinEng         TotEng          Temp          Press         Density    
     50000  -1.5134787      2.1267478      0.61326907     1.4249566      0.15004767     0.2          
     60000  -1.5971483      2.2096604      0.61251205     1.4805095      0.24089867     0.2          
     70000  -1.5414121      2.1548667      0.61345461     1.4437968      0.14831893     0.2          
     80000  -1.4418515      2.0559903      0.61413889     1.377548       0.18827167     0.2          
     90000  -1.5212702      2.1349228      0.61365259     1.430434       0.16925423     0.2          
    100000  -1.4274675      2.041542       0.61407455     1.3678674      0.25386778     0.2          
    110000  -1.4337433      2.0472516      0.61350834     1.3716929      0.036932434    0.2          
    120000  -1.4001296      2.0141641      0.6140345      1.3495237      0.1876335      0.2          
    130000  -1.5084275      2.1218996      0.61347207     1.4217083      0.12457891     0.2          
    140000  -1.5244636      2.1379811      0.61351746     1.4324831      0.11356801     0.2          
    150000  -1.506265       2.1199951      0.61373011     1.4204322      0.048286749    0.2          
    160000  -1.4841584      2.0978543      0.61369595     1.4055975      0.070045512    0.2          
    170000  -1.3797878      1.9940026      0.61421485     1.3360152      0.19450776     0.2          
    180000  -1.459519       2.0729493      0.61343032     1.3889108      0.21182902     0.2          
    190000  -1.6039433      2.2176642      0.61372097     1.4858722      0.15514414     0.2          
    200000  -1.4871939      2.100685       0.61349115     1.4074942      0.16337378     0.2          
Loop time of 15.9355 on 1 procs for 150000 steps with 200 atoms

Performance: 813277.374 tau/day, 9412.933 timesteps/s, 1.883 Matom-step/s
99.6% CPU use with 1 MPI tasks x no OpenMP threads

MPI task timing breakdown:
Section |  min time  |  avg time  |  max time  |%varavg| %total
---------------------------------------------------------------
Pair    | 12.865     | 12.865     | 12.865     |   0.0 | 80.73
Neigh   | 1.3147     | 1.3147     | 1.3147     |   0.0 |  8.25
Comm    | 0.85708    | 0.85708    | 0.85708    |   0.0 |  5.38
Output  | 0.00037984 | 0.00037984 | 0.00037984 |   0.0 |  0.00
Modify  | 0.74865    | 0.74865    | 0.74865    |   0.0 |  4.70
Other   |            | 0.1498     |            |       |  0.94

Nlocal:            200 ave         200 max         200 min
Histogram: 1 0 0 0 0 0 0 0 0 0
Nghost:           1144 ave        1144 max        1144 min
Histogram: 1 0 0 0 0 0 0 0 0 0
Neighs:           6447 ave        6447 max        6447 min
Histogram: 1 0 0 0 0 0 0 0 0 0

Total # of neighbors = 6447
Ave neighs/atom = 32.235
Neighbor list builds = 3805
Dangerous builds = 0
unfix       production
unfix       rdf_out
clear
next        index
jump        SELF loop_start
variable index loop         1 ${nsteps}
variable index loop         1 16
variable r_cut              equal floor((${initialCutOff}+(${index}-1)*${step})*100)/100 #manual rounding to second decimal place
variable r_cut              equal floor((1.12246204830937+(${index}-1)*${step})*100)/100 
variable r_cut              equal floor((1.12246204830937+(16-1)*${step})*100)/100 
variable r_cut              equal floor((1.12246204830937+(16-1)*0.2)*100)/100 

print "Simulation for r_cut = ${r_cut}"
Simulation for r_cut = 4.12

variable region_name string     simulation_box_${r_cut}
variable region_name string     simulation_box_4.12
region ${region_name} block     0.0 ${box_size} 0.0 ${box_size} 0.0 ${box_size}
region simulation_box_4.12 block     0.0 ${box_size} 0.0 ${box_size} 0.0 ${box_size}
region simulation_box_4.12 block     0.0 10 0.0 ${box_size} 0.0 ${box_size}
region simulation_box_4.12 block     0.0 10 0.0 10 0.0 ${box_size}
region simulation_box_4.12 block     0.0 10 0.0 10 0.0 10
create_box 1 ${region_name}
create_box 1 simulation_box_4.12
Created orthogonal box = (0 0 0) to (10 10 10)
  1 by 1 by 1 MPI processor grid
create_atoms                    1 random ${nParticles} 234567 NULL overlap 1.3
create_atoms                    1 random 200 234567 NULL overlap 1.3
Created 200 atoms
  using lattice units in orthogonal box = (0 0 0) to (10 10 10)
  create_atoms CPU = 0.002 seconds

mass        1 1.0
velocity    all create 1.0 87242 mom yes dist gaussian
pair_style  lj/cut ${r_cut}
pair_style  lj/cut 4.12
pair_coeff  1 1 1.0 1.0
pair_modify tail yes

neighbor     0.3 bin
neigh_modify delay 0 every 10 check yes

thermo_style custom step pe ke etotal temp press density
thermo       10000

print "Equilibration"
Equilibration

fix         equilibration all nve
timestep    0.001
run         50000
Generated 0 of 0 mixed pair_coeff terms from geometric mixing rule
Neighbor list info ...
  update: every = 10 steps, delay = 0 steps, check = yes
  max neighbors/atom: 2000, page size: 100000
  master list distance cutoff = 4.42
  ghost atom cutoff = 4.42
  binsize = 2.21, bins = 5 5 5
  1 neighbor lists, perpetual/occasional/extra = 1 0 0
  (1) pair lj/cut, perpetual
      attributes: half, newton on
      pair build: half/bin/atomonly/newton
      stencil: half/bin/3d
      bin: standard
Per MPI rank memory allocation (min/avg/max) = 3.098 | 3.098 | 3.098 Mbytes
   Step         PotEng         KinEng         TotEng          Temp          Press         Density    
         0  -0.87776081     1.4925         0.61473919     1             -0.12226273     0.2          
     10000  -1.4894158      2.1032949      0.61387904     1.4092428      0.082939687    0.2          
     20000  -1.4474823      2.0621764      0.61469417     1.3816928      0.15140065     0.2          
     30000  -1.5216974      2.1352915      0.61359409     1.4306811      0.13932028     0.2          
     40000  -1.4004068      2.014702       0.61429526     1.3498841      0.10763282     0.2          
     50000  -1.4600073      2.0739388      0.61393148     1.3895737      0.18366298     0.2          
Loop time of 6.10925 on 1 procs for 50000 steps with 200 atoms

Performance: 707124.294 tau/day, 8184.309 timesteps/s, 1.637 Matom-step/s
99.9% CPU use with 1 MPI tasks x no OpenMP threads

MPI task timing breakdown:
Section |  min time  |  avg time  |  max time  |%varavg| %total
---------------------------------------------------------------
Pair    | 5.1172     | 5.1172     | 5.1172     |   0.0 | 83.76
Neigh   | 0.48663    | 0.48663    | 0.48663    |   0.0 |  7.97
Comm    | 0.31518    | 0.31518    | 0.31518    |   0.0 |  5.16
Output  | 0.0001208  | 0.0001208  | 0.0001208  |   0.0 |  0.00
Modify  | 0.12259    | 0.12259    | 0.12259    |   0.0 |  2.01
Other   |            | 0.06755    |            |       |  1.11

Nlocal:            200 ave         200 max         200 min
Histogram: 1 0 0 0 0 0 0 0 0 0
Nghost:           1184 ave        1184 max        1184 min
Histogram: 1 0 0 0 0 0 0 0 0 0
Neighs:           7367 ave        7367 max        7367 min
Histogram: 1 0 0 0 0 0 0 0 0 0

Total # of neighbors = 7367
Ave neighs/atom = 36.835
Neighbor list builds = 1280
Dangerous builds = 0
unfix       equilibration

compute rdf_all all rdf 100  # 100 bins for g(r)
variable rdf_file string rdf_${r_cut}.dat
variable rdf_file string rdf_4.12.dat
fix rdf_out all ave/time 100 1 100 c_rdf_all[*] file ${rdf_file} mode vector
fix rdf_out all ave/time 100 1 100 c_rdf_all[*] file rdf_4.12.dat mode vector

print "Production"
Production

fix         production all nve
timestep    0.001
run         150000
Generated 0 of 0 mixed pair_coeff terms from geometric mixing rule
Neighbor list info ...
  update: every = 10 steps, delay = 0 steps, check = yes
  max neighbors/atom: 2000, page size: 100000
  master list distance cutoff = 4.42
  ghost atom cutoff = 4.42
  binsize = 2.21, bins = 5 5 5
  2 neighbor lists, perpetual/occasional/extra = 1 1 0
  (1) pair lj/cut, perpetual
      attributes: half, newton on
      pair build: half/bin/atomonly/newton
      stencil: half/bin/3d
      bin: standard
  (2) compute rdf, occasional, copy from (1)
      attributes: half, newton on
      pair build: copy
      stencil: none
      bin: none
Per MPI rank memory allocation (min/avg/max) = 3.48 | 3.48 | 3.48 Mbytes
   Step         PotEng         KinEng         TotEng          Temp          Press         Density    
     50000  -1.4600073      2.0739388      0.61393148     1.3895737      0.18366298     0.2          
     60000  -1.4940945      2.1085178      0.61442332     1.4127422      0.17660691     0.2          
     70000  -1.5450808      2.1592146      0.61413377     1.4467099      0.18329339     0.2          
     80000  -1.5650185      2.1789902      0.61397173     1.45996        0.081908303    0.2          
     90000  -1.4789876      2.0929467      0.61395918     1.4023094      0.16006447     0.2          
    100000  -1.4680575      2.0821286      0.61407106     1.395061       0.15956569     0.2          
    110000  -1.4017802      2.0157745      0.61399433     1.3506027      0.18162138     0.2          
    120000  -1.5248491      2.1383617      0.61351255     1.4327381      0.21607298     0.2          
    130000  -1.4995681      2.1140918      0.61452365     1.4164769      0.15551222     0.2          
    140000  -1.5164692      2.1301089      0.61363972     1.4272087      0.1684401      0.2          
    150000  -1.6051209      2.2181462      0.61302539     1.4861951      0.14335341     0.2          
    160000  -1.5011113      2.1145557      0.61344442     1.4167877      0.12813936     0.2          
    170000  -1.3841316      1.9982767      0.61414501     1.3388788      0.19302073     0.2          
    180000  -1.4482862      2.0617751      0.61348899     1.3814239      0.18618071     0.2          
    190000  -1.4180934      2.0317367      0.61364329     1.3612976      0.16433685     0.2          
    200000  -1.5190503      2.1322181      0.61316784     1.4286219      0.19326904     0.2          
Loop time of 18.1879 on 1 procs for 150000 steps with 200 atoms

Performance: 712561.029 tau/day, 8247.234 timesteps/s, 1.649 Matom-step/s
99.7% CPU use with 1 MPI tasks x no OpenMP threads

MPI task timing breakdown:
Section |  min time  |  avg time  |  max time  |%varavg| %total
---------------------------------------------------------------
Pair    | 14.891     | 14.891     | 14.891     |   0.0 | 81.87
Neigh   | 1.4102     | 1.4102     | 1.4102     |   0.0 |  7.75
Comm    | 0.90856    | 0.90856    | 0.90856    |   0.0 |  5.00
Output  | 0.00046811 | 0.00046811 | 0.00046811 |   0.0 |  0.00
Modify  | 0.78246    | 0.78246    | 0.78246    |   0.0 |  4.30
Other   |            | 0.1957     |            |       |  1.08

Nlocal:            200 ave         200 max         200 min
Histogram: 1 0 0 0 0 0 0 0 0 0
Nghost:           1140 ave        1140 max        1140 min
Histogram: 1 0 0 0 0 0 0 0 0 0
Neighs:           7528 ave        7528 max        7528 min
Histogram: 1 0 0 0 0 0 0 0 0 0

Total # of neighbors = 7528
Ave neighs/atom = 37.64
Neighbor list builds = 3824
Dangerous builds = 0
unfix       production
unfix       rdf_out
clear
next        index
jump        SELF loop_start
Total wall time: 0:02:31
